*HEADING
Plate Analysis
*NODE
1, 0.0, 0.0, 0.0
2, 100.0, 0.0, 0.0
3, 100.0, 200.0, 0.0
4, 0.0, 200.0, 0.0
5, 60.0, 100.0, 0.0
6, 50.0, 110.0, 0.0
7, 40.0, 100.0, 0.0
8, 50.0, 90.0, 0.0
9, 2.499999999990279, 0.0, 0.0
10, 4.999999999979755, 0.0, 0.0
11, 7.499999999970311, 0.0, 0.0
12, 9.999999999961581, 0.0, 0.0
13, 12.49999999995293, 0.0, 0.0
14, 14.99999999994008, 0.0, 0.0
15, 17.49999999992711, 0.0, 0.0
16, 19.99999999991413, 0.0, 0.0
17, 22.49999999990133, 0.0, 0.0
18, 24.99999999988819, 0.0, 0.0
19, 27.49999999987507, 0.0, 0.0
20, 29.99999999986224, 0.0, 0.0
21, 32.49999999985538, 0.0, 0.0
22, 34.99999999984823, 0.0, 0.0
23, 37.49999999984529, 0.0, 0.0
24, 39.99999999984005, 0.0, 0.0
25, 42.49999999983367, 0.0, 0.0
26, 44.99999999983187, 0.0, 0.0
27, 47.49999999982777, 0.0, 0.0
28, 49.99999999982369, 0.0, 0.0
29, 52.49999999981995, 0.0, 0.0
30, 54.99999999981551, 0.0, 0.0
31, 57.49999999980921, 0.0, 0.0
32, 59.99999999980733, 0.0, 0.0
33, 62.49999999980803, 0.0, 0.0
34, 64.9999999998086, 0.0, 0.0
35, 67.49999999982195, 0.0, 0.0
36, 69.99999999983592, 0.0, 0.0
37, 72.49999999985255, 0.0, 0.0
38, 74.99999999986328, 0.0, 0.0
39, 77.49999999987566, 0.0, 0.0
40, 79.99999999989062, 0.0, 0.0
41, 82.49999999990627, 0.0, 0.0
42, 84.99999999991796, 0.0, 0.0
43, 87.49999999993265, 0.0, 0.0
44, 89.9999999999453, 0.0, 0.0
45, 92.49999999995865, 0.0, 0.0
46, 94.99999999997266, 0.0, 0.0
47, 97.49999999998352, 0.0, 0.0
48, 1.249999999995135, 0.0, 0.0
49, 3.749999999985155, 0.0, 0.0
50, 6.249999999974637, 0.0, 0.0
51, 8.749999999965956, 0.0, 0.0
52, 11.24999999995726, 0.0, 0.0
53, 13.74999999994647, 0.0, 0.0
54, 16.24999999993366, 0.0, 0.0
55, 18.74999999992076, 0.0, 0.0
56, 21.2499999999078, 0.0, 0.0
57, 23.74999999989461, 0.0, 0.0
58, 26.24999999988186, 0.0, 0.0
59, 28.74999999986866, 0.0, 0.0
60, 31.2499999998587, 0.0, 0.0
61, 33.74999999985203, 0.0, 0.0
62, 36.24999999984676, 0.0, 0.0
63, 38.74999999984267, 0.0, 0.0
64, 41.24999999983693, 0.0, 0.0
65, 43.74999999983294, 0.0, 0.0
66, 46.24999999983007, 0.0, 0.0
67, 48.74999999982507, 0.0, 0.0
68, 51.24999999982086, 0.0, 0.0
69, 53.74999999981813, 0.0, 0.0
70, 56.2499999998122, 0.0, 0.0
71, 58.74999999980797, 0.0, 0.0
72, 61.24999999980811, 0.0, 0.0
73, 63.74999999980663, 0.0, 0.0
74, 66.24999999981527, 0.0, 0.0
75, 68.74999999982943, 0.0, 0.0
76, 71.24999999984406, 0.0, 0.0
77, 73.74999999985813, 0.0, 0.0
78, 76.24999999986966, 0.0, 0.0
79, 78.74999999988495, 0.0, 0.0
80, 81.24999999989751, 0.0, 0.0
81, 83.74999999991257, 0.0, 0.0
82, 86.24999999992642, 0.0, 0.0
83, 88.74999999993726, 0.0, 0.0
84, 91.24999999995204, 0.0, 0.0
85, 93.74999999996525, 0.0, 0.0
86, 96.24999999997769, 0.0, 0.0
87, 98.74999999999272, 0.0, 0.0
88, 100.0, 2.499999999990191, 0.0
89, 100.0, 4.999999999980423, 0.0
90, 100.0, 7.499999999970204, 0.0
91, 100.0, 9.99999999995951, 0.0
92, 100.0, 12.49999999994887, 0.0
93, 100.0, 14.99999999994023, 0.0
94, 100.0, 17.49999999993163, 0.0
95, 100.0, 19.99999999992316, 0.0
96, 100.0, 22.49999999991407, 0.0
97, 100.0, 24.9999999999054, 0.0
98, 100.0, 27.49999999989309, 0.0
99, 100.0, 29.99999999988016, 0.0
100, 100.0, 32.49999999986732, 0.0
101, 100.0, 34.9999999998542, 0.0
102, 100.0, 37.49999999984086, 0.0
103, 100.0, 39.99999999982826, 0.0
104, 100.0, 42.49999999981591, 0.0
105, 100.0, 44.99999999980232, 0.0
106, 100.0, 47.49999999978947, 0.0
107, 100.0, 49.99999999977637, 0.0
108, 100.0, 52.49999999976307, 0.0
109, 100.0, 54.99999999975043, 0.0
110, 100.0, 57.49999999973711, 0.0
111, 100.0, 59.99999999972449, 0.0
112, 100.0, 62.49999999971424, 0.0
113, 100.0, 64.99999999970466, 0.0
114, 100.0, 67.49999999970055, 0.0
115, 100.0, 69.99999999969646, 0.0
116, 100.0, 72.4999999996925, 0.0
117, 100.0, 74.99999999968828, 0.0
118, 100.0, 77.49999999968338, 0.0
119, 100.0, 79.9999999996801, 0.0
120, 100.0, 82.49999999967568, 0.0
121, 100.0, 84.99999999967193, 0.0
122, 100.0, 87.49999999966742, 0.0
123, 100.0, 89.99999999966374, 0.0
124, 100.0, 92.49999999965999, 0.0
125, 100.0, 94.99999999965556, 0.0
126, 100.0, 97.49999999965016, 0.0
127, 100.0, 99.99999999964737, 0.0
128, 100.0, 102.4999999996419, 0.0
129, 100.0, 104.9999999996392, 0.0
130, 100.0, 107.4999999996355, 0.0
131, 100.0, 109.999999999631, 0.0
132, 100.0, 112.4999999996274, 0.0
133, 100.0, 114.9999999996228, 0.0
134, 100.0, 117.4999999996181, 0.0
135, 100.0, 119.9999999996147, 0.0
136, 100.0, 122.4999999996102, 0.0
137, 100.0, 124.9999999996065, 0.0
138, 100.0, 127.4999999996117, 0.0
139, 100.0, 129.9999999996172, 0.0
140, 100.0, 132.4999999996295, 0.0
141, 100.0, 134.9999999996445, 0.0
142, 100.0, 137.4999999996595, 0.0
143, 100.0, 139.9999999996718, 0.0
144, 100.0, 142.4999999996843, 0.0
145, 100.0, 144.9999999996992, 0.0
146, 100.0, 147.4999999997131, 0.0
147, 100.0, 149.9999999997266, 0.0
148, 100.0, 152.4999999997406, 0.0
149, 100.0, 154.9999999997539, 0.0
150, 100.0, 157.4999999997676, 0.0
151, 100.0, 159.9999999997812, 0.0
152, 100.0, 162.4999999997943, 0.0
153, 100.0, 164.9999999998086, 0.0
154, 100.0, 167.4999999998243, 0.0
155, 100.0, 169.9999999998359, 0.0
156, 100.0, 172.4999999998486, 0.0
157, 100.0, 174.9999999998633, 0.0
158, 100.0, 177.499999999876, 0.0
159, 100.0, 179.9999999998906, 0.0
160, 100.0, 182.4999999999031, 0.0
161, 100.0, 184.999999999918, 0.0
162, 100.0, 187.4999999999311, 0.0
163, 100.0, 189.9999999999453, 0.0
164, 100.0, 192.4999999999578, 0.0
165, 100.0, 194.9999999999726, 0.0
166, 100.0, 197.4999999999871, 0.0
167, 100.0, 1.249999999995073, 0.0
168, 100.0, 3.749999999985302, 0.0
169, 100.0, 6.249999999975483, 0.0
170, 100.0, 8.749999999964857, 0.0
171, 100.0, 11.24999999995426, 0.0
172, 100.0, 13.74999999994447, 0.0
173, 100.0, 16.24999999993598, 0.0
174, 100.0, 18.7499999999274, 0.0
175, 100.0, 21.24999999991865, 0.0
176, 100.0, 23.74999999990964, 0.0
177, 100.0, 26.24999999989913, 0.0
178, 100.0, 28.74999999988664, 0.0
179, 100.0, 31.24999999987395, 0.0
180, 100.0, 33.74999999986088, 0.0
181, 100.0, 36.24999999984701, 0.0
182, 100.0, 38.74999999983437, 0.0
183, 100.0, 41.2499999998221, 0.0
184, 100.0, 43.74999999980879, 0.0
185, 100.0, 46.24999999979583, 0.0
186, 100.0, 48.74999999978272, 0.0
187, 100.0, 51.2499999997698, 0.0
188, 100.0, 53.74999999975694, 0.0
189, 100.0, 56.24999999974379, 0.0
190, 100.0, 58.74999999973058, 0.0
191, 100.0, 61.24999999971936, 0.0
192, 100.0, 63.74999999970956, 0.0
193, 100.0, 66.2499999997026, 0.0
194, 100.0, 68.74999999969867, 0.0
195, 100.0, 71.24999999969425, 0.0
196, 100.0, 73.74999999969056, 0.0
197, 100.0, 76.24999999968554, 0.0
198, 100.0, 78.7499999996817, 0.0
199, 100.0, 81.2499999996779, 0.0
200, 100.0, 83.7499999996738, 0.0
201, 100.0, 86.24999999966977, 0.0
202, 100.0, 88.74999999966558, 0.0
203, 100.0, 91.2499999996618, 0.0
204, 100.0, 93.7499999996581, 0.0
205, 100.0, 96.24999999965286, 0.0
206, 100.0, 98.74999999964894, 0.0
207, 100.0, 101.2499999996451, 0.0
208, 100.0, 103.7499999996402, 0.0
209, 100.0, 106.2499999996372, 0.0
210, 100.0, 108.7499999996337, 0.0
211, 100.0, 111.2499999996292, 0.0
212, 100.0, 113.7499999996255, 0.0
213, 100.0, 116.24999999962, 0.0
214, 100.0, 118.7499999996152, 0.0
215, 100.0, 121.2499999996128, 0.0
216, 100.0, 123.7499999996078, 0.0
217, 100.0, 126.2499999996096, 0.0
218, 100.0, 128.7499999996137, 0.0
219, 100.0, 131.2499999996235, 0.0
220, 100.0, 133.7499999996345, 0.0
221, 100.0, 136.2499999996545, 0.0
222, 100.0, 138.7499999996656, 0.0
223, 100.0, 141.2499999996776, 0.0
224, 100.0, 143.7499999996919, 0.0
225, 100.0, 146.2499999997066, 0.0
226, 100.0, 148.7499999997185, 0.0
227, 100.0, 151.2499999997358, 0.0
228, 100.0, 153.7499999997463, 0.0
229, 100.0, 156.249999999762, 0.0
230, 100.0, 158.7499999997739, 0.0
231, 100.0, 161.24999999979, 0.0
232, 100.0, 163.7499999998014, 0.0
233, 100.0, 166.2499999998165, 0.0
234, 100.0, 168.7499999998301, 0.0
235, 100.0, 171.2499999998415, 0.0
236, 100.0, 173.7499999998571, 0.0
237, 100.0, 176.2499999998695, 0.0
238, 100.0, 178.7499999998833, 0.0
239, 100.0, 181.2499999998959, 0.0
240, 100.0, 183.749999999911, 0.0
241, 100.0, 186.2499999999249, 0.0
242, 100.0, 188.7499999999376, 0.0
243, 100.0, 191.2499999999502, 0.0
244, 100.0, 193.7499999999646, 0.0
245, 100.0, 196.2499999999787, 0.0
246, 100.0, 198.7499999999942, 0.0
247, 97.50000000001776, 200.0, 0.0
248, 95.00000000003553, 200.0, 0.0
249, 92.50000000005329, 200.0, 0.0
250, 90.00000000007105, 200.0, 0.0
251, 87.50000000008684, 200.0, 0.0
252, 85.00000000010658, 200.0, 0.0
253, 82.50000000012574, 200.0, 0.0
254, 80.00000000014211, 200.0, 0.0
255, 77.5000000001603, 200.0, 0.0
256, 75.00000000017764, 200.0, 0.0
257, 72.50000000019278, 200.0, 0.0
258, 70.00000000021316, 200.0, 0.0
259, 67.50000000023027, 200.0, 0.0
260, 65.00000000024869, 200.0, 0.0
261, 62.50000000025467, 200.0, 0.0
262, 60.00000000025813, 200.0, 0.0
263, 57.50000000025862, 200.0, 0.0
264, 55.00000000025813, 200.0, 0.0
265, 52.50000000025813, 200.0, 0.0
266, 50.00000000025813, 200.0, 0.0
267, 47.50000000025811, 200.0, 0.0
268, 45.00000000025813, 200.0, 0.0
269, 42.50000000025958, 200.0, 0.0
270, 40.00000000025814, 200.0, 0.0
271, 37.50000000025344, 200.0, 0.0
272, 35.0000000002487, 200.0, 0.0
273, 32.50000000022932, 200.0, 0.0
274, 30.00000000021316, 200.0, 0.0
275, 27.50000000019487, 200.0, 0.0
276, 25.00000000017765, 200.0, 0.0
277, 22.50000000016149, 200.0, 0.0
278, 20.00000000014211, 200.0, 0.0
279, 17.50000000012494, 200.0, 0.0
280, 15.00000000010658, 200.0, 0.0
281, 12.50000000009001, 200.0, 0.0
282, 10.00000000007105, 200.0, 0.0
283, 7.500000000053262, 200.0, 0.0
284, 5.000000000035527, 200.0, 0.0
285, 2.500000000017039, 200.0, 0.0
286, 98.7500000000084, 200.0, 0.0
287, 96.25000000002665, 200.0, 0.0
288, 93.75000000004533, 200.0, 0.0
289, 91.25000000006229, 200.0, 0.0
290, 88.75000000007563, 200.0, 0.0
291, 86.25000000009473, 200.0, 0.0
292, 83.75000000011502, 200.0, 0.0
293, 81.25000000013284, 200.0, 0.0
294, 78.7500000001512, 200.0, 0.0
295, 76.25000000017094, 200.0, 0.0
296, 73.75000000018431, 200.0, 0.0
297, 71.2500000002023, 200.0, 0.0
298, 68.75000000022268, 200.0, 0.0
299, 66.25000000023955, 200.0, 0.0
300, 63.75000000025342, 200.0, 0.0
301, 61.25000000025647, 200.0, 0.0
302, 58.75000000025837, 200.0, 0.0
303, 56.25000000025837, 200.0, 0.0
304, 53.75000000025846, 200.0, 0.0
305, 51.25000000025813, 200.0, 0.0
306, 48.75000000025818, 200.0, 0.0
307, 46.25000000025872, 200.0, 0.0
308, 43.75000000025866, 200.0, 0.0
309, 41.25000000025862, 200.0, 0.0
310, 38.75000000025632, 200.0, 0.0
311, 36.25000000025028, 200.0, 0.0
312, 33.7500000002395, 200.0, 0.0
313, 31.2500000002203, 200.0, 0.0
314, 28.75000000020296, 200.0, 0.0
315, 26.25000000018692, 200.0, 0.0
316, 23.75000000017231, 200.0, 0.0
317, 21.25000000015196, 200.0, 0.0
318, 18.75000000013308, 200.0, 0.0
319, 16.25000000011603, 200.0, 0.0
320, 13.75000000010046, 200.0, 0.0
321, 11.25000000007988, 200.0, 0.0
322, 8.750000000061831, 200.0, 0.0
323, 6.250000000045986, 200.0, 0.0
324, 3.750000000027242, 200.0, 0.0
325, 1.250000000007105, 200.0, 0.0
326, 0.0, 197.5000000000184, 0.0
327, 0.0, 195.0000000000355, 0.0
328, 0.0, 192.5000000000533, 0.0
329, 0.0, 190.0000000000711, 0.0
330, 0.0, 187.5000000000885, 0.0
331, 0.0, 185.0000000001066, 0.0
332, 0.0, 182.5000000001247, 0.0
333, 0.0, 180.0000000001421, 0.0
334, 0.0, 177.5000000001583, 0.0
335, 0.0, 175.0000000001776, 0.0
336, 0.0, 172.5000000001964, 0.0
337, 0.0, 170.0000000002132, 0.0
338, 0.0, 167.50000000023, 0.0
339, 0.0, 165.0000000002487, 0.0
340, 0.0, 162.5000000002665, 0.0
341, 0.0, 160.0000000002842, 0.0
342, 0.0, 157.5000000003007, 0.0
343, 0.0, 155.0000000003197, 0.0
344, 0.0, 152.5000000003347, 0.0
345, 0.0, 150.0000000003553, 0.0
346, 0.0, 147.5000000003749, 0.0
347, 0.0, 145.0000000003908, 0.0
348, 0.0, 142.5000000004069, 0.0
349, 0.0, 140.0000000004263, 0.0
350, 0.0, 137.500000000443, 0.0
351, 0.0, 135.0000000004619, 0.0
352, 0.0, 132.5000000004773, 0.0
353, 0.0, 130.0000000004974, 0.0
354, 0.0, 127.5000000005079, 0.0
355, 0.0, 125.0000000005163, 0.0
356, 0.0, 122.5000000005157, 0.0
357, 0.0, 120.0000000005163, 0.0
358, 0.0, 117.5000000005149, 0.0
359, 0.0, 115.0000000005163, 0.0
360, 0.0, 112.5000000005169, 0.0
361, 0.0, 110.0000000005163, 0.0
362, 0.0, 107.5000000005169, 0.0
363, 0.0, 105.0000000005163, 0.0
364, 0.0, 102.5000000005163, 0.0
365, 0.0, 100.0000000005163, 0.0
366, 0.0, 97.50000000051564, 0.0
367, 0.0, 95.00000000051627, 0.0
368, 0.0, 92.50000000051679, 0.0
369, 0.0, 90.00000000051627, 0.0
370, 0.0, 87.50000000051585, 0.0
371, 0.0, 85.00000000051627, 0.0
372, 0.0, 82.50000000051696, 0.0
373, 0.0, 80.00000000051628, 0.0
374, 0.0, 77.50000000051575, 0.0
375, 0.0, 75.00000000051628, 0.0
376, 0.0, 72.50000000050751, 0.0
377, 0.0, 70.00000000049741, 0.0
378, 0.0, 67.50000000048061, 0.0
379, 0.0, 65.00000000046185, 0.0
380, 0.0, 62.5000000004413, 0.0
381, 0.0, 60.00000000042633, 0.0
382, 0.0, 57.50000000040723, 0.0
383, 0.0, 55.00000000039083, 0.0
384, 0.0, 52.50000000037366, 0.0
385, 0.0, 50.0000000003553, 0.0
386, 0.0, 47.50000000033913, 0.0
387, 0.0, 45.00000000031977, 0.0
388, 0.0, 42.50000000030514, 0.0
389, 0.0, 40.00000000028422, 0.0
390, 0.0, 37.50000000026515, 0.0
391, 0.0, 35.00000000024869, 0.0
392, 0.0, 32.5000000002284, 0.0
393, 0.0, 30.00000000021316, 0.0
394, 0.0, 27.50000000019412, 0.0
395, 0.0, 25.00000000017764, 0.0
396, 0.0, 22.50000000016058, 0.0
397, 0.0, 20.00000000014211, 0.0
398, 0.0, 17.50000000012443, 0.0
399, 0.0, 15.00000000010658, 0.0
400, 0.0, 12.50000000008762, 0.0
401, 0.0, 10.00000000007105, 0.0
402, 0.0, 7.500000000051728, 0.0
403, 0.0, 5.000000000035527, 0.0
404, 0.0, 2.500000000016172, 0.0
405, 0.0, 198.7500000000085, 0.0
406, 0.0, 196.2500000000281, 0.0
407, 0.0, 193.7500000000443, 0.0
408, 0.0, 191.2500000000615, 0.0
409, 0.0, 188.7500000000798, 0.0
410, 0.0, 186.2500000000981, 0.0
411, 0.0, 183.7500000001164, 0.0
412, 0.0, 181.250000000133, 0.0
413, 0.0, 178.7500000001501, 0.0
414, 0.0, 176.2500000001695, 0.0
415, 0.0, 173.75000000019, 0.0
416, 0.0, 171.2500000002034, 0.0
417, 0.0, 168.7500000002219, 0.0
418, 0.0, 166.2500000002411, 0.0
419, 0.0, 163.7500000002571, 0.0
420, 0.0, 161.250000000276, 0.0
421, 0.0, 158.7500000002925, 0.0
422, 0.0, 156.2500000003122, 0.0
423, 0.0, 153.7500000003275, 0.0
424, 0.0, 151.250000000344, 0.0
425, 0.0, 148.7500000003656, 0.0
426, 0.0, 146.2500000003822, 0.0
427, 0.0, 143.7500000003987, 0.0
428, 0.0, 141.2500000004178, 0.0
429, 0.0, 138.7500000004342, 0.0
430, 0.0, 136.2500000004525, 0.0
431, 0.0, 133.7500000004683, 0.0
432, 0.0, 131.2500000004909, 0.0
433, 0.0, 128.7500000005031, 0.0
434, 0.0, 126.2500000005121, 0.0
435, 0.0, 123.750000000516, 0.0
436, 0.0, 121.2500000005158, 0.0
437, 0.0, 118.7500000005154, 0.0
438, 0.0, 116.2500000005156, 0.0
439, 0.0, 113.7500000005167, 0.0
440, 0.0, 111.2500000005166, 0.0
441, 0.0, 108.7500000005162, 0.0
442, 0.0, 106.2500000005165, 0.0
443, 0.0, 103.7500000005164, 0.0
444, 0.0, 101.2500000005163, 0.0
445, 0.0, 98.75000000051585, 0.0
446, 0.0, 96.25000000051607, 0.0
447, 0.0, 93.75000000051628, 0.0
448, 0.0, 91.25000000051624, 0.0
449, 0.0, 88.75000000051631, 0.0
450, 0.0, 86.25000000051486, 0.0
451, 0.0, 83.75000000051718, 0.0
452, 0.0, 81.25000000051637, 0.0
453, 0.0, 78.75000000051546, 0.0
454, 0.0, 76.25000000051601, 0.0
455, 0.0, 73.7500000005123, 0.0
456, 0.0, 71.25000000050093, 0.0
457, 0.0, 68.75000000048868, 0.0
458, 0.0, 66.25000000047075, 0.0
459, 0.0, 63.75000000045017, 0.0
460, 0.0, 61.2500000004338, 0.0
461, 0.0, 58.75000000041945, 0.0
462, 0.0, 56.25000000039981, 0.0
463, 0.0, 53.75000000038236, 0.0
464, 0.0, 51.25000000036323, 0.0
465, 0.0, 48.7500000003474, 0.0
466, 0.0, 46.25000000032915, 0.0
467, 0.0, 43.75000000031116, 0.0
468, 0.0, 41.25000000029428, 0.0
469, 0.0, 38.75000000027708, 0.0
470, 0.0, 36.25000000025739, 0.0
471, 0.0, 33.75000000024008, 0.0
472, 0.0, 31.25000000022092, 0.0
473, 0.0, 28.75000000020322, 0.0
474, 0.0, 26.25000000018443, 0.0
475, 0.0, 23.75000000016999, 0.0
476, 0.0, 21.25000000015177, 0.0
477, 0.0, 18.75000000013026, 0.0
478, 0.0, 16.2500000001157, 0.0
479, 0.0, 13.75000000009808, 0.0
480, 0.0, 11.25000000007824, 0.0
481, 0.0, 8.750000000060538, 0.0
482, 0.0, 6.250000000043798, 0.0
483, 0.0, 3.750000000024869, 0.0
484, 0.0, 1.250000000008697, 0.0
485, 59.80785279983982, 101.9509032412383, 0.0
486, 59.23879531617012, 103.8268343452406, 0.0
487, 58.31469610614734, 105.5557023554559, 0.0
488, 57.07106778867811, 107.0710678350528, 0.0
489, 55.55570231231821, 108.314696134971, 0.0
490, 53.82683430302026, 109.2387953336584, 0.0
491, 51.95090320948182, 109.8078528061566, 0.0
492, 59.95184726602641, 100.9801714103577, 0.0
493, 59.56940335229314, 102.9028467891228, 0.0
494, 58.81921263331202, 104.7139673872896, 0.0
495, 57.73010451524168, 106.3439328640395, 0.0
496, 56.34393282090943, 107.7301045506376, 0.0
497, 54.71396735441899, 108.8192126508817, 0.0
498, 52.90284675745151, 109.5694033619005, 0.0
499, 50.9801713998717, 109.9518472670592, 0.0
500, 48.04909677602502, 109.8078528032737, 0.0
501, 46.17316566952387, 109.2387953222858, 0.0
502, 44.44429765013005, 108.3146961098798, 0.0
503, 42.92893217687487, 107.0710678006058, 0.0
504, 41.68530387011009, 105.5557023199226, 0.0
505, 40.7612046700578, 103.8268343119919, 0.0
506, 40.19214719439323, 101.9509032122459, 0.0
507, 49.0198285949776, 109.9518472665519, 0.0
508, 47.09715322277636, 109.5694033559027, 0.0
509, 45.28603261760459, 108.819212635928, 0.0
510, 43.65606714070678, 107.7301045191368, 0.0
511, 42.26989545607501, 106.3439328290888, 0.0
512, 41.18078735200007, 104.7139673598104, 0.0
513, 40.43059664190149, 102.9028467699851, 0.0
514, 40.04815273235502, 100.9801713939241, 0.0
515, 40.19214720016018, 98.04909675876169, 0.0
516, 40.76120468382988, 96.1731656547594, 0.0
517, 41.68530389385266, 94.44429764454411, 0.0
518, 42.92893221132189, 92.92893216494716, 0.0
519, 44.44429768768179, 91.68530386502897, 0.0
520, 46.17316569697974, 90.76120466634164, 0.0
521, 48.04909679051818, 90.19214719384343, 0.0
522, 40.04815273397359, 99.01982858964227, 0.0
523, 40.43059664770686, 97.09715321087715, 0.0
524, 41.18078736668798, 95.28603261271044, 0.0
525, 42.26989548475832, 93.65606713596051, 0.0
526, 43.65606717909057, 92.2698954493624, 0.0
527, 45.28603264558101, 91.18078734911829, 0.0
528, 47.09715324254849, 90.43059663809947, 0.0
529, 49.0198286001283, 90.0481527329408, 0.0
530, 51.95090322397498, 90.19214719672628, 0.0
531, 53.82683433047613, 90.76120467771423, 0.0
532, 55.55570234986995, 91.68530389012024, 0.0
533, 57.07106782312513, 92.92893219939418, 0.0
534, 58.31469612988991, 94.44429768007736, 0.0
535, 59.2387953299422, 96.17316568800814, 0.0
536, 59.80785280560677, 98.04909678775408, 0.0
537, 50.9801714050224, 90.0481527334481, 0.0
538, 52.90284677722364, 90.43059664409728, 0.0
539, 54.71396738239541, 91.18078736407199, 0.0
540, 56.34393285929322, 92.26989548086317, 0.0
541, 57.73010454392499, 93.65606717091124, 0.0
542, 58.81921264799993, 95.28603264018957, 0.0
543, 59.56940335809851, 97.09715323001491, 0.0
544, 59.95184726764498, 99.01982860607588, 0.0
545, 49.99316566524562, 4.953156028262254, 0.0
546, 45.01903670536603, 195.0452695559608, 0.0
547, 53.49251602019538, 112.6872855223896, 0.0
548, 46.71387971665006, 86.54555369769562, 0.0
549, 95.05114859348969, 45.0054003483058, 0.0
550, 55.10852322642733, 87.74163728746198, 0.0
551, 4.942861698040722, 154.995221909134, 0.0
552, 95.05672998931085, 155.0093905560942, 0.0
553, 43.103496841117, 111.3888529267377, 0.0
554, 38.0419221506919, 94.80068950095195, 0.0
555, 4.938927352816747, 44.97264694661737, 0.0
556, 95.14710807799082, 125.0866877095781, 0.0
557, 4.864101202780669, 70.06027115813134, 0.0
558, 95.1022125442415, 60.00443826267519, 0.0
559, 95.13140396818197, 74.99326293422195, 0.0
560, 64.87744646392348, 97.85167608438631, 0.0
561, 4.896992848237676, 139.9946809097138, 0.0
562, 4.876045317503721, 124.9742613968648, 0.0
563, 35.81023711216353, 102.3929240083446, 0.0
564, 34.98833341234394, 4.97336516205042, 0.0
565, 65.00653945292584, 195.0228337091667, 0.0
566, 70.00578502639101, 4.980603385483914, 0.0
567, 61.82049135243593, 106.105949589653, 0.0
568, 4.887504899517699, 90.03459938523028, 0.0
569, 4.886856046015442, 110.0722601023326, 0.0
570, 95.14299857861899, 89.99159249986421, 0.0
571, 95.15534345112604, 105.0015819909721, 0.0
572, 4.971793169833363, 29.99027054968525, 0.0
573, 95.0158997370707, 175.0049130763327, 0.0
574, 95.00993100824131, 24.9921450133996, 0.0
575, 25.00394894027622, 195.0173594129062, 0.0
576, 80.0027836711181, 195.0064574166144, 0.0
577, 85.00177368209246, 4.997039259885184, 0.0
578, 4.9976000673886, 185.0026399639249, 0.0
579, 95.00393903312987, 185.0023908930024, 0.0
580, 4.984171664701882, 19.98819180563535, 0.0
581, 19.9890620698207, 4.986710225648739, 0.0
582, 4.894909743990538, 59.99976179522399, 0.0
583, 95.11028222519118, 135.0614767031885, 0.0
584, 95.00110480826159, 9.998675339645263, 0.0
585, 4.987569730955305, 175.0001500913686, 0.0
586, 9.999878986890721, 195.0017172102164, 0.0
587, 95.15829117306474, 110.0208378246132, 0.0
588, 95.14972987915789, 94.98153621488862, 0.0
589, 4.911094143712473, 105.092852052015, 0.0
590, 4.928626135949011, 100.0772580750169, 0.0
591, 4.867960867625702, 85.05865316073562, 0.0
592, 95.15782185940402, 115.0449744810174, 0.0
593, 4.85560529886421, 80.08100747666444, 0.0
594, 4.872333004960877, 120.0083174689427, 0.0
595, 95.14036490088493, 79.9893374902092, 0.0
596, 4.880907493680091, 134.9725648825762, 0.0
597, 95.11890734294025, 64.9951055554403, 0.0
598, 95.09716633329407, 140.0309227761842, 0.0
599, 4.906456741688955, 54.97342410739453, 0.0
600, 60.00178623917967, 4.961812134286387, 0.0
601, 44.9909914198993, 4.955430590485195, 0.0
602, 35.01559418683375, 195.037048113931, 0.0
603, 50.01637721787858, 195.0439179778429, 0.0
604, 4.966353196508816, 164.9868465703902, 0.0
605, 4.927923615779097, 150.0097734841258, 0.0
606, 95.04463429675147, 160.0113362641735, 0.0
607, 95.08752360259587, 145.0108994109079, 0.0
608, 95.0265773693769, 34.99485475936489, 0.0
609, 95.06990498573141, 50.00705584715113, 0.0
610, 55.01336325018686, 195.0391147926289, 0.0
611, 95.03453162633883, 165.0097367245152, 0.0
612, 70.00538104943858, 195.0163747408548, 0.0
613, 4.949554806551999, 39.98233346873748, 0.0
614, 4.977054777404622, 14.97836201971453, 0.0
615, 85.00201536246365, 195.0038319040122, 0.0
616, 95.00159104241152, 190.0015162077939, 0.0
617, 14.9793924334771, 4.978408223685397, 0.0
618, 4.968983498758012, 9.969269357857664, 0.0
619, 29.98832213236373, 4.980669233220283, 0.0
620, 9.97134551779136, 4.971097534565017, 0.0
621, 90.00117350047631, 195.001914775993, 0.0
622, 95.00056532305292, 195.0007566519829, 0.0
623, 4.979767354670638, 4.979767806858955, 0.0
624, 80.00320658810061, 4.99365046233377, 0.0
625, 95.00269448632007, 14.99694869400921, 0.0
626, 95.00043037390878, 4.99944455783262, 0.0
627, 4.99991789873907, 195.0006357712192, 0.0
628, 14.99991038939293, 195.0046219734335, 0.0
629, 62.97561086210467, 92.64178086243838, 0.0
630, 37.79565948974141, 107.6606185882757, 0.0
631, 46.810995157992, 112.8995782707072, 0.0
632, 57.84485402036294, 111.8788110615311, 0.0
633, 63.84266910108239, 103.5095567402283, 0.0
634, 49.98113765102876, 9.883981026881354, 0.0
635, 45.04082062995572, 190.1140330994286, 0.0
636, 43.45440989975027, 115.6186691760162, 0.0
637, 55.78058987224207, 114.5190396575847, 0.0
638, 90.14209173309582, 155.0272806553512, 0.0
639, 90.12782354403521, 44.97906754385431, 0.0
640, 9.848582601059437, 44.93571000732685, 0.0
641, 90.2545107478133, 59.95176576636667, 0.0
642, 9.856706616502665, 155.0197089798633, 0.0
643, 90.27379711541772, 135.132892214369, 0.0
644, 9.703797635223586, 125.0050786499024, 0.0
645, 29.95974254569861, 9.949371975538313, 0.0
646, 65.02823571756342, 190.058413102269, 0.0
647, 69.0349623502768, 96.24211521484725, 0.0
648, 90.40411977794763, 110.0994409658628, 0.0
649, 34.42574125415306, 105.997461861128, 0.0
650, 9.701853754485029, 85.14371291246306, 0.0
651, 90.32374745605193, 74.90095978169532, 0.0
652, 9.88389049565376, 105.3195658506156, 0.0
653, 65.67208304935457, 105.5616403315532, 0.0
654, 90.34244166252404, 89.92121062463947, 0.0
655, 9.966853184337419, 19.97430915358638, 0.0
656, 19.9743681341272, 9.972539587289322, 0.0
657, 14.97095427935689, 9.970512706789323, 0.0
658, 80.01226346903626, 190.0175311919504, 0.0
659, 90.00412819775909, 190.0047297563933, 0.0
660, 85.00643881442649, 9.991156287765639, 0.0
661, 51.59385592541852, 86.24802222584175, 0.0
662, 43.32116554576436, 88.58695278534212, 0.0
663, 58.72536801205369, 89.69547487878184, 0.0
664, 36.81733704489378, 98.57583495182757, 0.0
665, 95.1592995376414, 99.98445496382149, 0.0
666, 4.915911618685271, 95.04696470396229, 0.0
667, 4.871387698652774, 115.0458248951664, 0.0
668, 95.14900996369335, 84.985340802573, 0.0
669, 4.850168245061376, 75.08109537923647, 0.0
670, 95.15866198032874, 120.0717799042343, 0.0
671, 4.870884535929147, 129.9677623786755, 0.0
672, 95.13356191339938, 69.98494494664328, 0.0
673, 90.24321608504019, 140.066587726431, 0.0
674, 95.13918512875728, 130.0869477381669, 0.0
675, 4.874901998216773, 65.03041164273417, 0.0
676, 4.910290870660487, 145.0142189660336, 0.0
677, 95.09173160597257, 55.002593594229, 0.0
678, 4.919720961106596, 49.96506304163768, 0.0
679, 95.07673933662943, 150.0066522134186, 0.0
680, 55.03783951088332, 190.0971845283555, 0.0
681, 90.1127514848747, 160.0332788314116, 0.0
682, 54.99709679159112, 4.953243070199632, 0.0
683, 40.01934948228117, 195.0457140594569, 0.0
684, 4.951438750901496, 159.9889790378743, 0.0
685, 95.04070354527491, 39.99729827434284, 0.0
686, 39.98813148280516, 4.962253762403527, 0.0
687, 4.959663052789155, 34.9872462601482, 0.0
688, 60.01194260148161, 195.0335900550077, 0.0
689, 65.0058453190652, 4.970218020522253, 0.0
690, 30.00924669145961, 195.0282057458608, 0.0
691, 95.02551955485832, 170.0076213791746, 0.0
692, 4.976807780436689, 169.9942615929226, 0.0
693, 95.01794771954432, 29.99102494414715, 0.0
694, 4.979145964520447, 24.98931960203499, 0.0
695, 75.0047289789317, 195.011422094978, 0.0
696, 24.98822604169193, 4.984391271048316, 0.0
697, 75.00525895297906, 4.987647761512179, 0.0
698, 9.968206638371809, 14.970561951322, 0.0
699, 9.968692898996244, 9.969060438603135, 0.0
700, 90.00348831427398, 9.995560571515249, 0.0
701, 95.00933191731828, 180.0040564432813, 0.0
702, 95.00588849801841, 19.99416813900121, 0.0
703, 90.00138676371698, 4.998075382591741, 0.0
704, 9.998044036193052, 190.0051311657205, 0.0
705, 20.00069234335584, 195.0103434695726, 0.0
706, 4.993262595861778, 180.0030396599387, 0.0
707, 4.999058938454855, 190.001910869279, 0.0
708, 49.0837432943204, 85.15343070558066, 0.0
709, 50.36538112315262, 113.8058077785148, 0.0
710, 40.21142090967561, 91.38342971635568, 0.0
711, 40.78152979110082, 109.7832623964623, 0.0
712, 59.91306969561867, 109.0060547538475, 0.0
713, 66.80855257471879, 101.620963669977, 0.0
714, 48.89013987705451, 82.42103199486982, 0.0
715, 9.698357781491701, 65.0511611509222, 0.0
716, 60.18629455019379, 85.45300696454656, 0.0
717, 65.0222459036117, 9.92870287125788, 0.0
718, 85.50595323296162, 135.2043962511112, 0.0
719, 85.26896444599728, 155.0716382030991, 0.0
720, 33.04284929100072, 97.3424156977796, 0.0
721, 36.63285599573832, 89.50121858767494, 0.0
722, 68.11754260479051, 104.992836931493, 0.0
723, 30.00888099119051, 190.0678710938209, 0.0
724, 9.964944417930987, 175.009184550213, 0.0
725, 90.04578254775187, 29.96992370675925, 0.0
726, 90.3822414090651, 120.1748502813447, 0.0
727, 90.34106078417892, 84.90965681909948, 0.0
728, 90.3164500891244, 69.90200837105584, 0.0
729, 90.32940113963501, 130.1858386953798, 0.0
730, 90.21665075742435, 54.96607584722437, 0.0
731, 90.18317643847413, 150.0202467897886, 0.0
732, 37.70357195220313, 113.0893445974783, 0.0
733, 9.789679759503802, 145.0712043299206, 0.0
734, 90.09750653578752, 39.97164722889779, 0.0
735, 9.90221286935685, 34.96239964423006, 0.0
736, 90.06120310552386, 170.0241959207337, 0.0
737, 75.01786517062312, 190.0283216610497, 0.0
738, 68.21527381665975, 91.86159090706204, 0.0
739, 70.49631916137045, 100.1694897098239, 0.0
740, 32.08374204941883, 101.0817875490448, 0.0
741, 90.34018305631675, 79.8906702586271, 0.0
742, 90.29663940358773, 64.91612891389417, 0.0
743, 90.3815712740022, 99.95755710058067, 0.0
744, 90.36740795022467, 94.91869181712408, 0.0
745, 90.41073124362818, 105.037542586971, 0.0
746, 10.0053961448922, 100.244679577499, 0.0
747, 9.707160350493144, 129.9938401173195, 0.0
748, 9.677205581279065, 80.18406552626305, 0.0
749, 90.17368020876653, 49.97201352504034, 0.0
750, 90.40558708686112, 115.1491403816881, 0.0
751, 90.2181993540266, 145.0301687445127, 0.0
752, 9.910703468001769, 95.10620051929682, 0.0
753, 9.701037940110265, 115.157122569513, 0.0
754, 9.692584845034235, 120.0818381036268, 0.0
755, 9.82004375307387, 150.0583406648862, 0.0
756, 9.65807926610775, 75.16562934716345, 0.0
757, 9.811499320542291, 49.92080912355882, 0.0
758, 54.99727793015388, 9.889255734892364, 0.0
759, 9.883203351515427, 159.9983469905567, 0.0
760, 40.03467516693915, 190.1092284846342, 0.0
761, 9.760745839760661, 90.08505736352365, 0.0
762, 9.743863000482014, 110.2740984435582, 0.0
763, 60.03593575590767, 190.0811513996135, 0.0
764, 9.872475164982932, 39.95109457006282, 0.0
765, 39.95938764242987, 9.906806110656843, 0.0
766, 34.95325179707574, 9.92651212072781, 0.0
767, 90.0871588180132, 165.0313588494174, 0.0
768, 44.96707096295322, 9.887360318038684, 0.0
769, 50.04070466064195, 190.1128563498143, 0.0
770, 24.96588720647149, 9.962330116324338, 0.0
771, 70.02450324947476, 190.0429881895707, 0.0
772, 9.912264071524374, 164.994407364913, 0.0
773, 9.950740609074495, 24.97057068263432, 0.0
774, 90.02260556780224, 180.0130556801359, 0.0
775, 19.94836530913555, 14.95131994825159, 0.0
776, 14.94178622200362, 19.95236314272973, 0.0
777, 19.99534446903511, 190.0257980419896, 0.0
778, 75.01727382043383, 9.969688495718264, 0.0
779, 80.01211203154017, 9.98173879022208, 0.0
780, 14.95929264236966, 14.96258904237725, 0.0
781, 90.01136343376655, 185.0089511451664, 0.0
782, 90.0153347960476, 19.98383346983334, 0.0
783, 85.01607162838052, 14.98023645528736, 0.0
784, 85.0087775094566, 190.0107007959296, 0.0
785, 14.99571282069263, 190.0134681535191, 0.0
786, 90.00878173156013, 14.98978414065099, 0.0
787, 9.992293062843546, 185.009746827912, 0.0
788, 56.22124131748694, 83.86903601047524, 0.0
789, 45.00006530835489, 83.1382523867544, 0.0
790, 61.0157190441774, 114.1614257399236, 0.0
791, 48.67140754592407, 117.5794206500516, 0.0
792, 36.12954336480142, 109.9546388012659, 0.0
793, 64.78239786334099, 107.949831189403, 0.0
794, 53.52521305419187, 116.8726818040547, 0.0
795, 50.06039145546598, 185.2140474789721, 0.0
796, 44.92371623302067, 14.78865471256356, 0.0
797, 44.20381415714319, 120.8969389611062, 0.0
798, 85.31616154395672, 49.89275927888113, 0.0
799, 56.37623518419041, 119.5691549693979, 0.0
800, 14.7803964865196, 160.0578301931146, 0.0
801, 14.65595265172102, 49.86610105233326, 0.0
802, 70.06251188863789, 185.0822070607253, 0.0
803, 85.57822935364833, 69.72803943876137, 0.0
804, 14.46291069772703, 115.3799740919254, 0.0
805, 14.47998273019312, 130.1119397956081, 0.0
806, 19.90541457309225, 19.91941551582041, 0.0
807, 14.57101610317534, 80.26369569569, 0.0
808, 85.60101763946963, 84.79331149113331, 0.0
809, 29.38563747063884, 100.2522082895325, 0.0
810, 71.71217896898943, 103.9659928528315, 0.0
811, 85.76999693686098, 115.336867302892, 0.0
812, 15.86641878297411, 100.5942883392631, 0.0
813, 32.78486471393504, 113.0415812676516, 0.0
814, 85.59497499468344, 130.2731719232072, 0.0
815, 85.73744414606514, 105.1768592490269, 0.0
816, 9.733847647411668, 59.98123470552272, 0.0
817, 14.76287513451137, 39.89541382465792, 0.0
818, 34.89063702696345, 14.85644840331142, 0.0
819, 85.16005237905755, 165.0698673516924, 0.0
820, 24.922981532723, 14.92601775362747, 0.0
821, 85.03213590868205, 19.96424475318548, 0.0
822, 34.42379475892194, 93.40236582459171, 0.0
823, 14.87419344758426, 94.97596700249905, 0.0
824, 85.54226493972565, 64.76747480839792, 0.0
825, 9.768063569078887, 54.9345043938122, 0.0
826, 90.37284802332248, 125.1938660136146, 0.0
827, 85.67848030498278, 99.92450210306579, 0.0
828, 85.3368088671408, 150.0648543518343, 0.0
829, 85.44863789998317, 140.1205351666568, 0.0
830, 55.00457597135753, 14.79501487179383, 0.0
831, 40.02893709433737, 185.2018916242512, 0.0
832, 90.07116383072022, 34.96692850798897, 0.0
833, 60.07398530250791, 185.1553974517621, 0.0
834, 14.52665300389857, 110.6076581882016, 0.0
835, 14.57760279685137, 90.12639478296947, 0.0
836, 9.751848120545676, 140.0579982611447, 0.0
837, 9.719533939747775, 135.0329544057723, 0.0
838, 85.21496198441196, 160.0792799339734, 0.0
839, 85.60499379501988, 79.75049974635503, 0.0
840, 9.658897740188767, 70.1143150035192, 0.0
841, 60.01440794705456, 9.904289562340683, 0.0
842, 85.65083396934149, 94.79864844025933, 0.0
843, 35.01953232589651, 190.0936044067876, 0.0
844, 75.05034670096556, 185.0568578887573, 0.0
845, 85.04352727941924, 180.0307539078388, 0.0
846, 14.44504639035855, 120.2265047233255, 0.0
847, 9.925593056574227, 29.96465031932993, 0.0
848, 85.40082156135321, 54.86402457624332, 0.0
849, 75.04181808722652, 14.94029445725043, 0.0
850, 14.90535765377736, 24.93430323245481, 0.0
851, 85.1834971191496, 39.90512889480038, 0.0
852, 14.66979820765774, 150.1524387837183, 0.0
853, 9.939265291565933, 170.0027698936302, 0.0
854, 70.02373028569201, 9.948805947968886, 0.0
855, 90.04207920347511, 175.0198804124504, 0.0
856, 24.99767071833227, 190.0463130703677, 0.0
857, 80.0292272114337, 14.9619439747216, 0.0
858, 9.980578385827933, 180.0128090563155, 0.0
859, 85.02269765991095, 185.0202915266281, 0.0
860, 90.02978241612362, 24.97404807131004, 0.0
861, 14.98419236072963, 185.0243727726818, 0.0
862, 39.89772082144363, 118.2845478308478, 0.0
863, 73.06195385417632, 95.06658393809207, 0.0
864, 64.22993492282143, 87.00557968674431, 0.0
865, 52.49959577253831, 82.81040768538091, 0.0
866, 39.90565835725567, 85.1064625432247, 0.0
867, 58.82276210507502, 116.9252189186561, 0.0
868, 51.66016623494376, 118.6093078238098, 0.0
869, 63.13294317415891, 111.1717341131339, 0.0
870, 30.77168493159157, 104.5357150729261, 0.0
871, 33.30172485470022, 109.383668586759, 0.0
872, 68.22511663145552, 108.6819208304728, 0.0
873, 48.99150494809017, 78.49654149957713, 0.0
874, 80.6458720512832, 54.70490122487703, 0.0
875, 80.53696286197753, 150.1656895117706, 0.0
876, 59.87909946061539, 123.0328607821766, 0.0
877, 40.43343297620046, 121.2999387072186, 0.0
878, 80.92599727621507, 69.50993443449123, 0.0
879, 80.9488149507586, 130.3205159778243, 0.0
880, 65.56051817888749, 82.54212825573154, 0.0
881, 34.88105759885515, 83.89276207585385, 0.0
882, 14.36484601680855, 70.15386699521, 0.0
883, 80.95599895294129, 84.82100720176994, 0.0
884, 30.10384942011516, 91.86236874660186, 0.0
885, 19.13863859622045, 115.6925615043429, 0.0
886, 19.84352373851107, 24.87924073699312, 0.0
887, 70.12700404125981, 180.1401216554738, 0.0
888, 67.31208655124617, 114.4007220923697, 0.0
889, 14.88528899440653, 170.0378231346092, 0.0
890, 29.98169095412792, 185.1266857032155, 0.0
891, 27.53886849087568, 102.4706462288425, 0.0
892, 19.505747755929, 94.5933390910689, 0.0
893, 72.27956709415585, 108.1071163812751, 0.0
894, 80.26442393834581, 99.9183790806058, 0.0
895, 72.47486419762878, 90.87624972299949, 0.0
896, 14.85869892319394, 29.91727070442644, 0.0
897, 80.34594229291575, 160.1549536940862, 0.0
898, 85.07731253945491, 175.0449239251532, 0.0
899, 14.96207686521822, 180.0349122578377, 0.0
900, 19.97546558484219, 185.0495913627562, 0.0
901, 28.48766622096461, 112.2999314283411, 0.0
902, 74.26451032888606, 98.77268264968434, 0.0
903, 85.79029012960208, 110.3442088317414, 0.0
904, 14.44005202796361, 75.17308329072141, 0.0
905, 14.50941176971191, 135.1628328480796, 0.0
906, 14.59193254771676, 54.89141113116461, 0.0
907, 14.61011676733974, 145.189859143659, 0.0
908, 14.83130471294174, 165.0455098809936, 0.0
909, 34.99884085187821, 185.1713638954239, 0.0
910, 55.0678570750615, 185.1944470412635, 0.0
911, 60.04125066965381, 14.82467321982793, 0.0
912, 70.05609873948174, 14.90494138226831, 0.0
913, 52.98396856815039, 122.0235801523666, 0.0
914, 39.89635064092739, 14.81470078451052, 0.0
915, 85.13626655363113, 34.90948993899231, 0.0
916, 85.0583002830556, 24.94370987203929, 0.0
917, 14.70610770523863, 44.87730900807568, 0.0
918, 14.80801523856046, 34.90232681627607, 0.0
919, 85.63640200207533, 89.81138101621578, 0.0
920, 14.7649196793171, 105.8741488590065, 0.0
921, 85.60590718948244, 74.71970218654408, 0.0
922, 14.56827466608329, 85.27437612959314, 0.0
923, 85.3996662104029, 145.0827798945998, 0.0
924, 14.4471787880439, 125.1426015468615, 0.0
925, 29.89921045497359, 14.8917973377061, 0.0
926, 85.11838745051121, 170.0595117850787, 0.0
927, 80.68831360970695, 140.2141472606599, 0.0
928, 85.7413779878423, 120.3185366632821, 0.0
929, 85.68981738840563, 125.2956089630433, 0.0
930, 14.4467175995414, 65.09012844783793, 0.0
931, 85.48480176844434, 59.81317670883885, 0.0
932, 24.8556843403324, 19.87159661516318, 0.0
933, 85.24908820215624, 44.8952705137755, 0.0
934, 75.08382972774073, 19.89499222862265, 0.0
935, 80.07301427092426, 180.0588158663011, 0.0
936, 14.71990121849392, 155.1077772981434, 0.0
937, 65.07447000335397, 185.1201826882765, 0.0
938, 80.05773730773967, 19.93264965860313, 0.0
939, 45.0454733314694, 185.2201278647825, 0.0
940, 49.96096311885227, 14.77780938040669, 0.0
941, 80.03801792688523, 185.0373610679279, 0.0
942, 56.89546188364712, 79.69058143055426, 0.0
943, 39.35750530932789, 80.45405576274894, 0.0
944, 28.2777791137821, 96.80842776880338, 0.0
945, 48.20568423072719, 121.2855498811397, 0.0
946, 63.26984215146371, 115.9715706717673, 0.0
947, 36.77631147512163, 117.565995421275, 0.0
948, 29.36459747191291, 108.1871295036688, 0.0
949, 44.85209970714354, 19.64661299401898, 0.0
950, 45.03149689302133, 180.3598562246908, 0.0
951, 19.37030673753681, 54.859872836338, 0.0
952, 19.4577700106777, 150.2880392719545, 0.0
953, 19.72819328806292, 165.1387518162266, 0.0
954, 18.87019616362769, 70.25321374959282, 0.0
955, 19.14564670113185, 130.2685883929946, 0.0
956, 24.76434502766541, 24.80280921191275, 0.0
957, 20.27910705754116, 80.12370203541553, 0.0
958, 80.30815824651629, 39.79254713375706, 0.0
959, 34.94536189339519, 180.272674385373, 0.0
960, 81.26939507805244, 120.485316345667, 0.0
961, 19.93914692872807, 180.0749548136127, 0.0
962, 76.94349547092708, 94.48831911204287, 0.0
963, 80.95020094820319, 74.56963339128811, 0.0
964, 24.43886644813253, 106.1386891638115, 0.0
965, 55.01971485465604, 19.66180610466218, 0.0
966, 70.11169166445566, 19.84011370878509, 0.0
967, 19.60411161396337, 39.78358874153614, 0.0
968, 80.7749868577175, 59.6251291725188, 0.0
969, 19.76474495582679, 29.83573143224668, 0.0
970, 76.58255102305928, 106.8835431512712, 0.0
971, 20.25581622395196, 98.53240829160546, 0.0
972, 47.76940516747188, 125.0237807650768, 0.0
973, 65.87341646010245, 119.8604757548304, 0.0
974, 23.96383294775651, 111.4860717003924, 0.0
975, 81.14900036965521, 125.3824946967666, 0.0
976, 80.9542619809929, 79.72479452142107, 0.0
977, 81.05280115986862, 89.80569146029252, 0.0
978, 14.55219929421866, 140.194021605312, 0.0
979, 81.07326647227882, 94.60092440375199, 0.0
980, 19.26109779968546, 110.9842890669671, 0.0
981, 68.27853817032612, 87.94806502524904, 0.0
982, 80.62216712130864, 145.1913294933159, 0.0
983, 14.5288309002554, 59.98734599532258, 0.0
984, 24.80151893387561, 89.69722348426501, 0.0
985, 19.3193353377026, 90.12682707599842, 0.0
986, 43.75240514823341, 78.38460110994585, 0.0
987, 80.87470345438821, 64.54767525729143, 0.0
988, 61.36340749486629, 79.97946170368633, 0.0
989, 50.06218005706789, 180.3607558427511, 0.0
990, 39.79983616588553, 19.68880047691693, 0.0
991, 29.80950248554768, 19.81291475426216, 0.0
992, 19.07995764813894, 120.4329703337622, 0.0
993, 80.44517412904369, 155.1695365982004, 0.0
994, 60.12279424824754, 180.2677181943976, 0.0
995, 80.18881565175634, 170.1110391086677, 0.0
996, 80.26515237422198, 165.1374140390091, 0.0
997, 65.13640195226127, 180.2034442052846, 0.0
998, 65.05923766698763, 14.86203263823628, 0.0
999, 80.7959821631446, 135.2627217993234, 0.0
1000, 85.09524389925781, 29.92247121933602, 0.0
1001, 75.1476391587759, 24.83386476199039, 0.0
1002, 75.10485357986025, 180.0964654923731, 0.0
1003, 19.44120784823864, 49.80086137453829, 0.0
1004, 14.92640272475492, 175.0425130188419, 0.0
1005, 24.9709973621685, 185.0862928808871, 0.0
1006, 80.12761432727709, 175.0868987545882, 0.0
1007, 80.10159561912175, 24.89408319296851, 0.0
1008, 19.63536590120286, 160.1790646305756, 0.0
1009, 80.52242689236138, 49.74578386134862, 0.0
1010, 53.045989115894, 78.9416559708727, 0.0
1011, 72.62168210120883, 112.513713609958, 0.0
1012, 36.26783810459011, 81.19586624224043, 0.0
1013, 32.48369747072542, 117.0017042986635, 0.0
1014, 24.93201611893226, 99.7877452162902, 0.0
1015, 75.62675921966027, 102.5387639204738, 0.0
1016, 81.28569042728354, 110.80287161112, 0.0
1017, 32.48747504520347, 87.6754739222285, 0.0
1018, 81.02390222333025, 105.7972015982911, 0.0
1019, 56.31265946469262, 124.3374290174136, 0.0
1020, 36.46188966475231, 121.4385355356659, 0.0
1021, 62.14666950076079, 118.7464133432278, 0.0
1022, 44.70384425089823, 123.8531129203371, 0.0
1023, 49.47385276804389, 74.26561233690668, 0.0
1024, 50.03901998575003, 175.5354625027438, 0.0
1025, 41.93329455038478, 125.9051163421188, 0.0
1026, 76.14370123941274, 59.37208386583085, 0.0
1027, 60.24290314907033, 127.9813986930623, 0.0
1028, 24.07398402375126, 54.83855247867139, 0.0
1029, 44.75835506926439, 24.46771343929479, 0.0
1030, 75.77732738875333, 150.3364615044286, 0.0
1031, 24.46631037780927, 160.3292371394755, 0.0
1032, 59.95071507729978, 76.21216013790334, 0.0
1033, 60.16843251441448, 175.4026743596233, 0.0
1034, 37.81371347993919, 77.15414662220662, 0.0
1035, 76.39216164134602, 69.28840560066811, 0.0
1036, 76.37676640136945, 130.2488881510928, 0.0
1037, 75.4999934716124, 160.2673978728857, 0.0
1038, 29.6874263846696, 24.71041363078853, 0.0
1039, 70.19544424799729, 24.7523881320345, 0.0
1040, 68.25986216635238, 83.83592433491415, 0.0
1041, 31.24911465528587, 81.89252412224567, 0.0
1042, 75.23434645514475, 29.76208688828405, 0.0
1043, 65.11876235237399, 19.77396182005693, 0.0
1044, 24.919946515723, 180.1337810910704, 0.0
1045, 19.88199468256079, 175.1001067546122, 0.0
1046, 76.34988225879079, 79.96731514154119, 0.0
1047, 76.46279624165052, 85.2583296077297, 0.0
1048, 28.45253380494062, 85.5329243656719, 0.0
1049, 18.92768330454525, 74.82649415236804, 0.0
1050, 76.8096629332186, 125.4007104100855, 0.0
1051, 19.21668136630155, 135.3123145265026, 0.0
1052, 19.37653432452541, 145.3322587226694, 0.0
1053, 76.90794322274343, 111.5381928650904, 0.0
1054, 64.80848652967978, 124.1111093089142, 0.0
1055, 75.8626180809676, 145.3706006156148, 0.0
1056, 76.71010715736105, 90.12470270317338, 0.0
1057, 75.96555789350005, 54.47290781582637, 0.0
1058, 19.27106985118587, 103.1676223438883, 0.0
1059, 39.98644171642965, 180.3300295264508, 0.0
1060, 49.93238352641895, 19.63533804112317, 0.0
1061, 80.41101685582402, 44.7688256223265, 0.0
1062, 81.3344220931419, 115.6624260450602, 0.0
1063, 19.51881539722525, 44.77491839959973, 0.0
1064, 19.68084754096878, 34.79893732206808, 0.0
1065, 34.78570670857535, 19.74636859489305, 0.0
1066, 19.32968284036989, 85.57776833693717, 0.0
1067, 70.21192628518959, 175.2115221062046, 0.0
1068, 80.23019043758401, 34.81601131121361, 0.0
1069, 19.34610664525979, 60.04787926480481, 0.0
1070, 19.21851729656787, 65.28213972858872, 0.0
1071, 19.07794569464671, 125.2912456037278, 0.0
1072, 60.08663390253507, 19.71064072990984, 0.0
1073, 75.3735014681064, 165.2291380330182, 0.0
1074, 75.26636208335593, 170.1870725934213, 0.0
1075, 75.98379950231131, 135.2378916276326, 0.0
1076, 29.91824194568351, 180.2040960755329, 0.0
1077, 24.64891956819583, 29.72329545455934, 0.0
1078, 19.80877512482768, 170.1224539369653, 0.0
1079, 75.17742266046015, 175.1432537611377, 0.0
1080, 19.53857202723027, 155.2350420742167, 0.0
1081, 80.16237702294951, 29.85071171633295, 0.0
1082, 55.09088032491813, 180.328419023458, 0.0
1083, 52.07939567141306, 126.4716312035515, 0.0
1084, 70.18774813027679, 117.3948254207355, 0.0
1085, 23.79896876402139, 94.82008101416426, 0.0
1086, 28.12547970469267, 116.5311235074408, 0.0
1087, 23.69826127833296, 116.079769130023, 0.0
1088, 32.23876269574, 121.1376901317452, 0.0
1089, 77.00578354312752, 97.60183033236436, 0.0
1090, 21.94344120053161, 101.880035692191, 0.0
1091, 67.18506285703792, 78.23432191242418, 0.0
1092, 19.3041522318971, 106.4122599076986, 0.0
1093, 46.73369388027983, 128.585266630366, 0.0
1094, 40.63471870408033, 76.13906720817377, 0.0
1095, 36.69283205351707, 125.611519713618, 0.0
1096, 71.5892771868533, 59.06682312843838, 0.0
1097, 70.30709457223685, 29.64819258521887, 0.0
1098, 41.30139783007705, 130.6381691432371, 0.0
1099, 40.700855398501, 73.31142061325674, 0.0
1100, 71.09911889621435, 145.6178480312827, 0.0
1101, 23.71219128469436, 130.334645262688, 0.0
1102, 24.7011646310404, 65.77583247949582, 0.0
1103, 24.1085435505711, 145.4977660602953, 0.0
1104, 64.17922578487001, 128.3886949104616, 0.0
1105, 39.90942385888308, 175.4785943941409, 0.0
1106, 29.53426570823675, 29.59157389667851, 0.0
1107, 24.28685736657811, 44.62447409606337, 0.0
1108, 24.32056430342892, 155.3908845040666, 0.0
1109, 70.62905463276157, 160.41139956352, 0.0
1110, 55.03614964065538, 24.49601595845458, 0.0
1111, 75.60928975676092, 44.59989745617121, 0.0
1112, 34.64689191883055, 24.61096281339539, 0.0
1113, 65.20379633270083, 24.65822876063704, 0.0
1114, 75.34222737396941, 34.69219932698829, 0.0
1115, 70.31349480760075, 170.2843812266271, 0.0
1116, 72.72206516139087, 125.2444044810248, 0.0
1117, 24.2482687358265, 76.4292178454632, 0.0
1118, 72.02367153497957, 129.7696010263639, 0.0
1119, 53.57467622879604, 74.83914721471912, 0.0
1120, 77.0814087348069, 116.115632710392, 0.0
1121, 24.05927702784953, 60.00170291310405, 0.0
1122, 45.04318626421565, 73.76781961061945, 0.0
1123, 49.89233123108739, 24.45798244886706, 0.0
1124, 55.09974417386421, 175.4889989386497, 0.0
1125, 44.97085058408313, 175.5258217925949, 0.0
1126, 75.7847221713752, 49.54426251849591, 0.0
1127, 24.1732013420711, 49.70528083479164, 0.0
1128, 72.21622890143458, 86.27763620713036, 0.0
1129, 39.67242161763595, 24.52488504613918, 0.0
1130, 24.73496466261822, 170.2351168640387, 0.0
1131, 75.64193669747041, 155.3067105698614, 0.0
1132, 29.82321810624546, 175.2891804006413, 0.0
1133, 24.5248224335443, 34.65387245826301, 0.0
1134, 19.29353704362311, 140.3392743382597, 0.0
1135, 65.20667218630575, 175.3035543123858, 0.0
1136, 76.38891742512297, 74.56230273063854, 0.0
1137, 24.60702474642094, 165.2847625464191, 0.0
1138, 24.83980385429828, 175.1886777657125, 0.0
1139, 75.85342599023603, 140.3309734624526, 0.0
1140, 76.30518116007894, 64.28208079110722, 0.0
1141, 34.29911821921292, 78.96841210587115, 0.0
1142, 71.47960848602968, 80.72137281292817, 0.0
1143, 64.04354378250449, 76.04791958806031, 0.0
1144, 69.51165770366629, 120.5473921357385, 0.0
1145, 77.06325559825315, 120.7039482161284, 0.0
1146, 23.56592285960595, 120.649679453137, 0.0
1147, 22.8186488477725, 85.90335759026495, 0.0
1148, 56.27411078157552, 127.4983108471355, 0.0
1149, 24.80842112445986, 82.98628147840442, 0.0
1150, 27.94348555471267, 120.8821175492037, 0.0
1151, 23.05916783108799, 97.72374923896867, 0.0
1152, 73.07862679187116, 116.7258424525272, 0.0
1153, 49.95893464847804, 170.6709438981291, 0.0
1154, 49.90145551623864, 29.25601231432702, 0.0
1155, 28.841802356361, 49.68844512671475, 0.0
1156, 29.08085563632172, 155.5947174727599, 0.0
1157, 61.20444536127998, 73.53737934771333, 0.0
1158, 49.90808827408874, 70.02640788740631, 0.0
1159, 29.36043111279054, 34.4899230038705, 0.0
1160, 65.3216630932422, 29.52337547182674, 0.0
1161, 28.48454854020603, 59.99376778389156, 0.0
1162, 71.84954722279929, 63.98950689894958, 0.0
1163, 70.92665372398234, 140.5910235505003, 0.0
1164, 24.01096345425596, 140.4839723404933, 0.0
1165, 70.83579078414097, 155.4770761837079, 0.0
1166, 71.08078647075313, 49.29679438060629, 0.0
1167, 72.04942374064109, 69.04944177477867, 0.0
1168, 40.83339993632062, 69.32286748171788, 0.0
1169, 27.97319651575081, 125.4317456441601, 0.0
1170, 22.9545228529202, 70.98473606636354, 0.0
1171, 70.26673728124746, 134.8371797417594, 0.0
1172, 44.70805300407693, 29.26783382140726, 0.0
1173, 34.47893613948036, 29.45420463150037, 0.0
1174, 24.20010813098234, 150.4566322653745, 0.0
1175, 55.09305343261796, 170.6179382277219, 0.0
1176, 65.29790167554592, 170.4043543632685, 0.0
1177, 39.74532355567379, 170.6240423102701, 0.0
1178, 24.39975773203533, 39.61547783000902, 0.0
1179, 71.01046459044217, 150.5500999372198, 0.0
1180, 23.87835003596237, 135.4025021477185, 0.0
1181, 60.1446459641176, 24.56824476148967, 0.0
1182, 75.468795429616, 39.63705164152064, 0.0
1183, 29.68720651096003, 170.3754269003022, 0.0
1184, 70.44432493177324, 165.3532097046809, 0.0
1185, 71.34037512009071, 54.18412283510425, 0.0
1186, 70.44569641770084, 34.5433985551946, 0.0
1187, 34.84342670218647, 175.3904016842264, 0.0
1188, 29.29344860293551, 160.5270171147788, 0.0
1189, 45.68633378513196, 132.1355339230176, 0.0
1190, 60.49724870226213, 132.3286560232323, 0.0
1191, 36.39412503654081, 73.64394035104638, 0.0
1192, 36.99958789287087, 129.9369154876231, 0.0
1193, 21.99877964695573, 74.20290196342042, 0.0
1194, 68.03300446511892, 128.986411776671, 0.0
1195, 27.72393637197296, 79.18459034102244, 0.0
1196, 23.59085610625933, 125.4169386348118, 0.0
1197, 51.44272605573777, 131.451598874696, 0.0
1198, 68.79057257057451, 124.7547622971013, 0.0
1199, 57.26590745192798, 75.63049186852788, 0.0
1200, 73.13642698200057, 120.8415843471032, 0.0
1201, 32.33844431705936, 125.5111668420077, 0.0
1202, 66.75232829702435, 53.83837531962813, 0.0
1203, 50.16722645151393, 34.05765641627286, 0.0
1204, 40.71576480640483, 134.4430787468314, 0.0
1205, 66.35045553038896, 145.9315199359553, 0.0
1206, 55.15135998793722, 165.6110796290901, 0.0
1207, 65.49124898704126, 34.38308907244325, 0.0
1208, 34.3253396228362, 34.39162282064661, 0.0
1209, 28.68998115464774, 135.4710102352074, 0.0
1210, 65.99536817329968, 155.6863139740259, 0.0
1211, 65.26774198968539, 136.4704666665295, 0.0
1212, 33.85105732392174, 155.8477901525154, 0.0
1213, 70.62164875237129, 39.45399545383337, 0.0
1214, 65.44813130131271, 165.4969044302561, 0.0
1215, 60.24425409045452, 29.40488975482442, 0.0
1216, 28.26877417296889, 63.61639401514003, 0.0
1217, 67.88463862723705, 68.83748989342433, 0.0
1218, 54.02756028360236, 70.63983872864375, 0.0
1219, 28.70320584751517, 54.93346443388182, 0.0
1220, 34.68466758514991, 170.511434230698, 0.0
1221, 28.92961572554498, 150.6862966434032, 0.0
1222, 39.55618194805874, 29.346185671376, 0.0
1223, 70.84045934600758, 44.37212172065511, 0.0
1224, 55.11215637327491, 29.3141061069869, 0.0
1225, 29.50665743921406, 165.4548636194548, 0.0
1226, 67.09238221564213, 58.70041634285705, 0.0
1227, 64.29474297960327, 132.4021534397014, 0.0
1228, 60.22244400200253, 170.5135342375286, 0.0
1229, 29.18458515341453, 39.4664653981591, 0.0
1230, 28.99875186017485, 44.55304498269128, 0.0
1231, 28.84992735409057, 140.6932399367969, 0.0
1232, 44.82868313683878, 170.658408820942, 0.0
1233, 65.32481660743741, 73.2222448496517, 0.0
1234, 31.33040438427735, 74.94855604871664, 0.0
1235, 57.86569764381626, 71.6889194499385, 0.0
1236, 71.99279523943842, 74.35900342515936, 0.0
1237, 48.73965103104784, 133.5075689308916, 0.0
1238, 67.39526989354991, 131.9567281895351, 0.0
1239, 45.45588696251785, 69.66624776633661, 0.0
1240, 56.44576936197738, 131.9682047441942, 0.0
1241, 26.68504718319226, 72.74464527171664, 0.0
1242, 37.46915430298984, 133.1589831236217, 0.0
1243, 32.8303127461983, 130.1269273778121, 0.0
1244, 33.15767606239742, 55.164371707152, 0.0
1245, 33.66286991793659, 151.0014194187046, 0.0
1246, 49.93870228846911, 65.65694508975045, 0.0
1247, 55.35730222281736, 34.11835219910423, 0.0
1248, 62.62184137543754, 58.23484478339575, 0.0
1249, 39.44881697290734, 165.7433924844907, 0.0
1250, 41.33142927903589, 65.25291683723728, 0.0
1251, 39.57673785151312, 34.32381819372222, 0.0
1252, 49.83196143317976, 165.5510752737018, 0.0
1253, 58.46721386933557, 67.317720669829, 0.0
1254, 33.47369461517072, 60.77891141332958, 0.0
1255, 35.26132801751664, 68.70880728356055, 0.0
1256, 61.09836995131281, 136.7655196966178, 0.0
1257, 60.46645294888424, 34.23601708009063, 0.0
1258, 60.37195044065182, 165.6011843704197, 0.0
1259, 34.153376096021, 160.7365869740927, 0.0
1260, 66.06294551947144, 44.1233207075695, 0.0
1261, 44.96234063947627, 34.18033693140213, 0.0
1262, 33.74483233974105, 44.84140145762889, 0.0
1263, 66.41250604496484, 48.98554180041276, 0.0
1264, 34.44707378257804, 165.6203416747748, 0.0
1265, 65.69188608283913, 160.5832899049641, 0.0
1266, 66.24577133115865, 150.8134133220588, 0.0
1267, 66.08188261980563, 141.0423165207288, 0.0
1268, 65.74425175656411, 39.25058541845971, 0.0
1269, 67.44221648382114, 63.74000468145626, 0.0
1270, 28.86673581614137, 145.7581777835717, 0.0
1271, 45.01828747027164, 135.8135860372328, 0.0
1272, 34.14493605899608, 39.622452888556, 0.0
1273, 34.52128239781153, 135.5887697866287, 0.0
1274, 28.77327379354235, 69.0102552648561, 0.0
1275, 28.36378841347522, 130.3593738976594, 0.0
1276, 63.23212886939778, 69.31531926206053, 0.0
1277, 31.61030720524362, 70.81452178481224, 0.0
1278, 68.00030891881033, 73.71736515611654, 0.0
1279, 52.87034192298428, 136.7598892516252, 0.0
1280, 50.85968401827643, 38.86835023317725, 0.0
1281, 38.38228535130812, 151.370628387898, 0.0
1282, 61.77043215299658, 48.6640050167316, 0.0
1283, 61.56265927652273, 151.1043696400447, 0.0
1284, 38.52834936386068, 46.13459744720976, 0.0
1285, 55.57505351125234, 160.5057550786873, 0.0
1286, 39.04778232257613, 160.8649775335937, 0.0
1287, 60.82051470067631, 39.062220051922, 0.0
1288, 36.82988091944146, 59.02473165190038, 0.0
1289, 61.15164845821144, 155.8607012265427, 0.0
1290, 33.39802716342334, 50.15631340839565, 0.0
1291, 62.21995928257688, 53.43082351708527, 0.0
1292, 45.51823677302072, 65.42377858579174, 0.0
1293, 60.70433327223192, 160.6693762861703, 0.0
1294, 37.40520408667717, 63.98258716448278, 0.0
1295, 40.30285620182514, 40.59109345551986, 0.0
1296, 54.19442074956315, 66.28547575968088, 0.0
1297, 62.96022405647539, 63.30161855965715, 0.0
1298, 44.55393587723131, 165.6451902245992, 0.0
1299, 39.76090292158463, 138.1929591588628, 0.0
1300, 33.89452681757302, 141.2929025899559, 0.0
1301, 33.68209117311383, 146.207891136661, 0.0
1302, 61.73035094155631, 146.3037282813295, 0.0
1303, 61.55991524279476, 141.4706450192594, 0.0
1304, 56.88803728879053, 136.7759276517992, 0.0
1305, 48.95271879982712, 136.6203899304916, 0.0
1306, 37.14865895370342, 55.80708494765967, 0.0
1307, 57.75779127834113, 53.01823423912906, 0.0
1308, 43.97834974255903, 160.6786854474437, 0.0
1309, 49.79696590578354, 61.0635417082805, 0.0
1310, 57.27381401416018, 146.6847924531971, 0.0
1311, 55.87306382574545, 38.92312924587863, 0.0
1312, 37.78903483908812, 51.27520995839487, 0.0
1313, 43.76821638939231, 44.17599050885497, 0.0
1314, 38.45832564205613, 146.851909061361, 0.0
1315, 49.6026087532687, 159.3732920464189, 0.0
1316, 38.64892837546093, 156.046379419188, 0.0
1317, 57.18945401250649, 141.7336385282221, 0.0
1318, 61.29234304832782, 43.87817224073437, 0.0
1319, 45.91162749289533, 39.16710999096174, 0.0
1320, 44.32905883865847, 139.6928321516542, 0.0
1321, 38.8959503046377, 142.4040196301656, 0.0
1322, 57.12616814354284, 151.2747382522453, 0.0
1323, 58.4968286921039, 62.53509842956291, 0.0
1324, 41.65506499853792, 62.2281276930298, 0.0
1325, 58.20495366699495, 57.71498299817766, 0.0
1326, 39.20621740557811, 60.65200092842905, 0.0
1327, 31.11555992814642, 65.42193309252023, 0.0
1328, 56.46688904832772, 155.6758105328633, 0.0
1329, 47.21697953704025, 43.78350783262513, 0.0
1330, 52.87748583294233, 141.6383286355018, 0.0
1331, 52.27539330023258, 154.408858372276, 0.0
1332, 42.95065556338341, 151.6838133790128, 0.0
1333, 53.90122922545868, 57.15894919908306, 0.0
1334, 43.31329109481556, 156.0171588096721, 0.0
1335, 43.48914423630444, 143.6467485881928, 0.0
1336, 43.51154313368902, 48.26180496654311, 0.0
1337, 57.18490037869066, 48.37551412654747, 0.0
1338, 44.68234934960666, 60.29866785888119, 0.0
1339, 40.71417527694771, 57.31386170593213, 0.0
1340, 54.13072960888015, 61.75421542541292, 0.0
1341, 48.57114598398193, 140.8730292352541, 0.0
1342, 56.52655388217195, 43.68288421932992, 0.0
1343, 46.77815044188635, 155.7194983592105, 0.0
1344, 48.40759919766214, 48.1217133502071, 0.0
1345, 53.88735063202523, 151.244010452774, 0.0
1346, 45.78354542618794, 55.28708552994713, 0.0
1347, 53.42282644545001, 52.6645384085437, 0.0
1348, 47.51271107340538, 145.0880653037038, 0.0
1349, 47.90375975814005, 151.6327977291348, 0.0
1350, 41.88610446443751, 53.20560439759483, 0.0
1351, 52.70213502233842, 48.1812500301395, 0.0
1352, 51.81542558486805, 43.61868793807467, 0.0
1353, 49.71729697350629, 56.5474628929076, 0.0
1354, 52.0726400312072, 147.3162870789511, 0.0
1355, 42.93172609268076, 147.5604049817304, 0.0
1356, 49.32942009470121, 52.322889820002, 0.0
1357, 46.37621910444398, 52.17899402264685, 0.0
1358, 46.17080046579682, 147.9302903919853, 0.0
1359, 65.55838374831741, 69.07640457774244, 0.0
1360, 63.09617646293658, 66.30846891085883, 0.0
1361, 65.20122027014827, 63.5208116205567, 0.0
1362, 67.6634275555291, 66.28874728744029, 0.0
1363, 65.37980200923285, 66.29860809914956, 0.0
1364, 65.6748123047455, 138.7563915936292, 0.0
1365, 63.82089893130019, 141.2564807699941, 0.0
1366, 61.32914259705379, 139.1180823579386, 0.0
1367, 63.1830559704991, 136.6179931815737, 0.0
1368, 63.50197745089964, 138.9372369757839, 0.0
1369, 58.47150903211976, 132.1484303837132, 0.0
1370, 60.79780932678747, 134.5470878599251, 0.0
1371, 58.99320362005167, 136.7707236742085, 0.0
1372, 56.66690332538396, 134.3720661979967, 0.0
1373, 58.73235632608572, 134.4595770289609, 0.0
1374, 69.96703118393907, 68.9434658341015, 0.0
1375, 69.64588185331021, 63.86475579020292, 0.0
1376, 71.94948548172019, 66.51947433686412, 0.0
1377, 69.80645651862464, 66.4041108121522, 0.0
1378, 26.26617874821641, 81.08543590971342, 0.0
1379, 29.48652551362942, 80.53855723163406, 0.0
1380, 29.85082423011325, 83.71272424395879, 0.0
1381, 26.63047746470024, 84.25960292203817, 0.0
1382, 28.05850148916483, 82.39908007683613, 0.0
1383, 63.95767051874995, 109.5607826512685, 0.0
1384, 66.50375724739826, 108.3158760099379, 0.0
1385, 67.76860159135084, 111.5413214614213, 0.0
1386, 65.22251486270254, 112.7862281027518, 0.0
1387, 65.86313605505039, 110.5510520563449, 0.0
1388, 52.59268964456781, 117.7409948139323, 0.0
1389, 54.95072411919114, 118.2209183867263, 0.0
1390, 54.6801018761704, 120.7963675608822, 0.0
1391, 52.32206740154707, 120.3164439880882, 0.0
1392, 53.63639576036911, 119.2686811874073, 0.0
1393, 71.84791869373213, 83.49950451002925, 0.0
1394, 73.91474537241024, 80.34434397723467, 0.0
1395, 76.40633925022065, 82.61282237463544, 0.0
1396, 74.33951257154254, 85.76798290743002, 0.0
1397, 74.12712897197639, 83.05616344233235, 0.0
1398, 18.89893973408647, 72.53985395098043, 0.0
1399, 16.68386766625443, 74.99978872154472, 0.0
1400, 14.40244902238608, 72.6634751429657, 0.0
1401, 16.61752109021812, 70.2035403724014, 0.0
1402, 16.65069437823627, 72.60166454697305, 0.0
1403, 62.34379299514758, 123.5719850455454, 0.0
1404, 64.4938561572749, 126.2499021096879, 0.0
1405, 62.21106446697017, 128.185046801762, 0.0
1406, 60.06100130484286, 125.5071297376195, 0.0
1407, 62.27742873105888, 125.8785159236537, 0.0
1408, 66.10611512499446, 128.6875533435663, 0.0
1409, 67.71413717933441, 130.4715699831031, 0.0
1410, 65.8450064365766, 132.1794408146183, 0.0
1411, 64.23698438223664, 130.3954241750815, 0.0
1412, 65.97556078078553, 130.4334970790923, 0.0
1413, 21.95984096380414, 65.52898610404227, 0.0
1414, 19.28231197091383, 62.66500949669676, 0.0
1415, 21.70269183655466, 60.02479108895443, 0.0
1416, 24.38022082944496, 62.88876769629994, 0.0
1417, 21.8312664001794, 62.77688859649835, 0.0
1418, 83.41940887903041, 125.339051829905, 0.0
1419, 81.20919772385383, 122.9339055212168, 0.0
1420, 83.50538653294737, 120.4019265044745, 0.0
1421, 85.71559768812396, 122.8070728131627, 0.0
1422, 83.4623977059889, 122.8704891671898, 0.0
1423, 60.72852637428964, 62.91835849461003, 0.0
1424, 60.84967136936667, 68.31651996594476, 0.0
1425, 58.48202128071974, 64.92640954969596, 0.0
1426, 60.78909887182816, 65.6174392302774, 0.0
1427, 21.4184499372767, 115.886165317183, 0.0
1428, 19.19986819795295, 113.338425285655, 0.0
1429, 21.61246537372098, 111.2351803836797, 0.0
1430, 23.83104711304473, 113.7829204152077, 0.0
1431, 21.51545765549884, 113.5606728504313, 0.0
1432, 52.06656151901613, 65.97121042471566, 0.0
1433, 49.86783409712632, 63.36024339901547, 0.0
1434, 51.96384775733184, 61.40887856684671, 0.0
1435, 54.16257517922165, 64.0198455925469, 0.0
1436, 52.01520463817398, 63.69004449578119, 0.0
1437, 59.37468462765062, 141.6021417737407, 0.0
1438, 61.64513309217553, 143.8871866502945, 0.0
1439, 59.50208247785825, 146.4942603672633, 0.0
1440, 57.23163401333333, 144.2092154907096, 0.0
1441, 59.43838355275444, 144.048201070502, 0.0
1442, 40.98110973513825, 156.03176911443, 0.0
1443, 38.51560686338452, 153.708503903543, 0.0
1444, 40.66647045734577, 151.5272208834554, 0.0
1445, 43.13197332909948, 153.8504860943424, 0.0
1446, 40.823790096242, 153.7794949989427, 0.0
1447, 29.52717037812516, 77.06657319486953, 0.0
1448, 25.98610255389973, 77.80690409324282, 0.0
1449, 25.46665795950938, 74.58693155858992, 0.0
1450, 29.00772578373481, 73.84660066021664, 0.0
1451, 27.49691416881727, 75.82675237672973, 0.0
1452, 45.42720766076173, 151.6583055540738, 0.0
1453, 47.3409551000132, 153.6761480441726, 0.0
1454, 45.04572076835096, 155.8683285844413, 0.0
1455, 45.23646421455635, 153.7633170692575, 0.0
1456, 46.79047924791386, 160.0259887469313, 0.0
1457, 43.64582041868729, 158.3479221285579, 0.0
1458, 48.19037959757753, 157.5463952028147, 0.0
1459, 45.91810000813241, 157.9471586656863, 0.0
1460, 23.19115382433207, 104.0093624280012, 0.0
1461, 21.87150934001481, 106.275474535755, 0.0
1462, 19.28761104154148, 104.7899411257934, 0.0
1463, 20.60725552585874, 102.5238290180396, 0.0
1464, 21.23938243293678, 104.3996517768973, 0.0
1465, 36.84620997319397, 127.7742176006205, 0.0
1466, 39.31306330195093, 125.7583180278684, 0.0
1467, 41.61734619023092, 128.271642742678, 0.0
1468, 39.15049286147396, 130.2875423154301, 0.0
1469, 39.23177808171244, 128.0229301716493, 0.0
1470, 66.95620440710013, 97.04689564961677, 0.0
1471, 69.76564075582363, 98.20580246233557, 0.0
1472, 68.65243586804462, 100.8952266899004, 0.0
1473, 65.84299951932113, 99.73631987718164, 0.0
1474, 67.80432013757238, 98.9710611697586, 0.0
1475, 36.94794537774269, 165.6818670796328, 0.0
1476, 39.59707026429056, 168.1837173973804, 0.0
1477, 37.21499557041185, 170.567738270484, 0.0
1478, 34.56587068386398, 168.0658879527364, 0.0
1479, 37.08147047407727, 168.1248026750584, 0.0
1480, 64.89522655085446, 84.77385397123793, 0.0
1481, 66.91019017261993, 83.18902629532285, 0.0
1482, 68.26920016833924, 85.8919946800816, 0.0
1483, 66.25423654657376, 87.47682235599667, 0.0
1484, 66.58221335959685, 85.33292432565976, 0.0
1485, 42.19356192615687, 77.26183415905982, 0.0
1486, 40.66778705129066, 74.72524391071525, 0.0
1487, 42.87202083135833, 73.53962011193809, 0.0
1488, 44.39779570622453, 76.07621036028266, 0.0
1489, 42.53279137875759, 75.40072713549895, 0.0
1490, 71.10424906517994, 102.0677412813277, 0.0
1491, 69.91486078688997, 104.4794148921623, 0.0
1492, 67.46304758975465, 103.306900300735, 0.0
1493, 69.2836483274673, 102.6873207910314, 0.0
1494, 30.06814120175224, 106.3614222882975, 0.0
1495, 26.90173196002272, 107.1629093337401, 0.0
1496, 25.9888674695041, 104.304667696327, 0.0
1497, 29.15527671123363, 103.5031806508843, 0.0
1498, 28.02850433562818, 105.3330449923122, 0.0
1499, 39.93979702666913, 37.45745582462104, 0.0
1500, 42.26953924549469, 34.25207756256218, 0.0
1501, 45.4369840661858, 36.67372346118194, 0.0
1502, 43.10724184736024, 39.8791017232408, 0.0
1503, 42.68839054642746, 37.06558964290149, 0.0
1504, 31.4277134905052, 102.8087513109854, 0.0
1505, 28.46225298075726, 101.3614272591875, 0.0
1506, 30.73468976002884, 100.6669979192887, 0.0
1507, 29.94498323563123, 102.0850892850865, 0.0
1508, 75.81997273486047, 147.8535310600217, 0.0
1509, 78.2423926011381, 145.2809650544654, 0.0
1510, 80.57956499164308, 147.6785095025432, 0.0
1511, 78.15714512536543, 150.2510755080996, 0.0
1512, 78.19976886325176, 147.7660202812825, 0.0
1513, 72.92924607169573, 123.042994414064, 0.0
1514, 75.09984129012686, 120.7727662816158, 0.0
1515, 76.93645926573588, 123.0523293131069, 0.0
1516, 74.76586404730475, 125.3225574455551, 0.0
1517, 74.93285266871581, 123.0476618635855, 0.0
1518, 33.31568533878407, 57.97164156024079, 0.0
1519, 35.15316750805042, 55.48572832740584, 0.0
1520, 36.98926993657244, 57.41590829978003, 0.0
1521, 35.15178776730609, 59.90182153261498, 0.0
1522, 35.15247763767825, 57.69377493001041, 0.0
1523, 56.02097127979003, 158.0907828057753, 0.0
1524, 58.80926875326958, 155.768255879703, 0.0
1525, 60.92799086522168, 158.2650387563565, 0.0
1526, 58.13969339174213, 160.5875656824288, 0.0
1527, 58.47448107250585, 158.1779107810659, 0.0
1528, 15.37030611527918, 97.78512767088108, 0.0
1529, 12.93590746393316, 100.4194839583811, 0.0
1530, 9.958049806446986, 97.67544004839792, 0.0
1531, 12.39244845779301, 95.04108376089793, 0.0
1532, 12.66417796086309, 97.73028385963951, 0.0
1533, 72.34554654953168, 88.57694296506492, 0.0
1534, 76.58645169950579, 87.69151615545155, 0.0
1535, 74.59248567749492, 90.50047621308644, 0.0
1536, 74.46599912451873, 88.13422956025823, 0.0
1537, 33.94698958079118, 101.7373557786947, 0.0
1538, 32.56329567020978, 99.2121016234122, 0.0
1539, 34.93009316794725, 97.95912532480358, 0.0
1540, 36.31378707852866, 100.4843794800861, 0.0
1541, 34.43854137436922, 99.84824055174914, 0.0
1542, 58.16645575657591, 69.50332005988375, 0.0
1543, 62.21828711533888, 71.42634930488693, 0.0
1544, 59.53507150254812, 72.61314939882591, 0.0
1545, 60.1923714359574, 70.46483468238533, 0.0
1546, 45.24953661336675, 71.71703368847804, 0.0
1547, 47.6819876183033, 69.84632782687146, 0.0
1548, 49.69097052106632, 72.14601011215649, 0.0
1549, 47.25851951612977, 74.01671597376307, 0.0
1550, 47.47025356721653, 71.93152190031725, 0.0
1551, 12.15202370738217, 140.1260099332283, 0.0
1552, 9.735691030146725, 137.5454763334585, 0.0
1553, 12.11447285472984, 135.097893626926, 0.0
1554, 14.53080553196528, 137.6784272266958, 0.0
1555, 12.133248281056, 137.6119517800772, 0.0
1556, 39.56645989978593, 31.83500193254911, 0.0
1557, 42.13211747606783, 29.30700974639163, 0.0
1558, 44.8351968217766, 31.72408537640469, 0.0
1559, 42.20082836078127, 31.7795436544769, 0.0
1560, 57.56580254787212, 73.6597056592332, 0.0
1561, 60.57758021928989, 74.87476974280833, 0.0
1562, 58.60831126461388, 75.92132600321561, 0.0
1563, 59.07169138358101, 74.26723770102075, 0.0
1564, 43.90910153748145, 141.6697903699235, 0.0
1565, 46.4501024113202, 140.2829306934542, 0.0
1566, 48.04192852869365, 142.980547269479, 0.0
1567, 45.50092765485491, 144.3674069459483, 0.0
1568, 45.97551503308755, 142.3251688197012, 0.0
1569, 14.56038172398608, 57.43937856324359, 0.0
1570, 12.13133927383353, 59.98429035042265, 0.0
1571, 9.750955608245278, 57.45786954966746, 0.0
1572, 12.17999805839782, 54.9129577624884, 0.0
1573, 12.15566866611568, 57.44862405645553, 0.0
1574, 87.9725884256683, 79.82058500249107, 0.0
1575, 90.34062192024783, 82.4001635388633, 0.0
1576, 87.97103921182428, 84.8514841551164, 0.0
1577, 85.60300571724476, 82.27190561874417, 0.0
1578, 87.9718138187463, 82.33603457880373, 0.0
1579, 49.98819989467363, 149.4745424040429, 0.0
1580, 47.03728011196844, 149.78154406056, 0.0
1581, 46.84175576960109, 146.5091778478446, 0.0
1582, 49.79267555230629, 146.2021761913275, 0.0
1583, 48.41497783213737, 147.9918601259437, 0.0
1584, 76.99467597877516, 113.8269127877412, 0.0
1585, 79.09681682501349, 111.1705322381052, 0.0
1586, 81.31005626021272, 113.2326488280901, 0.0
1587, 79.2079154139744, 115.8890293777261, 0.0
1588, 79.15236611949396, 113.5297808079156, 0.0
1589, 23.65152369547685, 127.8757919487499, 0.0
1590, 25.78202631100507, 125.424342139486, 0.0
1591, 28.16849246461302, 127.8955597709098, 0.0
1592, 26.03798984908479, 130.3470095801737, 0.0
1593, 25.91000808004493, 127.8856758598298, 0.0
1594, 34.30022493929952, 163.1784643244338, 0.0
1595, 36.60057920929856, 160.8007822538432, 0.0
1596, 39.24829964774173, 163.3041850090422, 0.0
1597, 36.77426229352062, 163.241324666738, 0.0
1598, 38.30571074612764, 62.31729404645591, 0.0
1599, 35.43944935092395, 62.38074928890618, 0.0
1600, 38.01804916250978, 59.83836629016471, 0.0
1601, 36.72874925671687, 61.10955778953545, 0.0
1602, 57.76165521429452, 165.6061319997549, 0.0
1603, 60.29719722132718, 168.0573593039741, 0.0
1604, 57.65774871731025, 170.5657362326253, 0.0
1605, 55.1222067102776, 168.114508928406, 0.0
1606, 57.7097019658024, 168.0859341161901, 0.0
1607, 87.9194521716567, 64.84180186114605, 0.0
1608, 90.30654474635607, 67.409068642475, 0.0
1609, 87.94733972138636, 69.8150239049086, 0.0
1610, 85.56024714668699, 67.24775712357965, 0.0
1611, 87.93339594652153, 67.32841288302733, 0.0
1612, 26.27191278402778, 59.9977353484978, 0.0
1613, 24.06663052580039, 57.42012769588771, 0.0
1614, 26.38859493563321, 54.8860084562766, 0.0
1615, 28.5938771938606, 57.46361610888668, 0.0
1616, 26.3302538598305, 57.4418719023872, 0.0
1617, 19.28262501579128, 108.6982744873328, 0.0
1618, 24.20134969794452, 108.8123804321019, 0.0
1619, 21.7419873568679, 108.7553274597174, 0.0
1620, 88.09720495377485, 110.2218248988021, 0.0
1621, 90.40485343240437, 112.6242906737755, 0.0
1622, 88.08779201186104, 115.2430038422901, 0.0
1623, 85.78014353323152, 112.8405380673167, 0.0
1624, 88.09249848281793, 112.7324143705461, 0.0
1625, 24.12359268291118, 52.27191665673152, 0.0
1626, 26.50750184921605, 49.6968629807532, 0.0
1627, 28.77250410193809, 52.31095478029829, 0.0
1628, 26.44804839242463, 52.2914357185149, 0.0
1629, 62.3959958409327, 132.3654047314669, 0.0
1630, 64.78124248464434, 134.4363100531154, 0.0
1631, 62.7895259057159, 134.4916989565203, 0.0
1632, 25.75470420715931, 120.7658985011704, 0.0
1633, 23.63209206896946, 118.36472429158, 0.0
1634, 25.91187049151281, 116.3054463187319, 0.0
1635, 28.03448262970267, 118.7066205283223, 0.0
1636, 25.83328734933606, 118.5356724099511, 0.0
1637, 36.39523856110536, 141.8484611100607, 0.0
1638, 38.67713797334692, 144.6279643457633, 0.0
1639, 36.07020840758499, 146.529900099011, 0.0
1640, 33.78830899534343, 143.7503968633084, 0.0
1641, 36.23272348434517, 144.1891806045359, 0.0
1642, 50.59482639943879, 121.6545650167531, 0.0
1643, 52.53168211978172, 124.2476056779591, 0.0
1644, 49.92440041944247, 125.7477059843141, 0.0
1645, 47.98754469909954, 123.1546653231082, 0.0
1646, 50.25961340944063, 123.7011355005336, 0.0
1647, 45.95957116567558, 48.19175915837511, 0.0
1648, 43.63987976154066, 46.21889773769904, 0.0
1649, 45.49259796321628, 43.97974917074005, 0.0
1650, 47.8122893673512, 45.95261059141612, 0.0
1651, 45.72608456444593, 46.08575416455758, 0.0
1652, 88.0300257894925, 99.94102960182323, 0.0
1653, 90.3961512588152, 102.4975498437759, 0.0
1654, 88.07408769484667, 105.1072009179989, 0.0
1655, 85.70796222552397, 102.5506806760463, 0.0
1656, 88.05205674216958, 102.5241152599111, 0.0
1657, 76.74524712290136, 109.2108680081808, 0.0
1658, 78.80322662319477, 106.3403723747812, 0.0
1659, 81.1547963253069, 108.3000366047056, 0.0
1660, 78.95002172410413, 108.7554523064432, 0.0
1661, 62.79103271595646, 60.76823167152645, 0.0
1662, 64.85711179553984, 58.46763056312641, 0.0
1663, 67.26729934973164, 61.22021051215665, 0.0
1664, 65.02916603284406, 60.99422109184155, 0.0
1665, 46.56430351496779, 41.47530891179343, 0.0
1666, 42.03553629560872, 42.38354198218741, 0.0
1667, 44.29991990528826, 41.92942544699042, 0.0
1668, 49.51620256095416, 43.7010978853499, 0.0
1669, 48.38565575558588, 39.0177301120695, 0.0
1670, 51.33755480157224, 41.24351908562596, 0.0
1671, 48.95092915827001, 41.3594139987097, 0.0
1672, 49.91235737875317, 22.04666024499512, 0.0
1673, 52.47604919053749, 19.64857207289267, 0.0
1674, 55.02793224765571, 22.07891103155838, 0.0
1675, 52.46424043587139, 24.47699920366082, 0.0
1676, 52.47014481320444, 22.06278563827675, 0.0
1677, 70.92312768729157, 153.0135880604639, 0.0
1678, 68.41557947872033, 155.5816950788669, 0.0
1679, 66.12056975222916, 153.2498636480423, 0.0
1680, 68.62811796080041, 150.6817566296393, 0.0
1681, 68.52184871976036, 153.1317258542531, 0.0
1682, 42.94119082803208, 149.6221091803716, 0.0
1683, 44.55126327923879, 147.7453476868579, 0.0
1684, 44.98923547000026, 149.7018266204658, 0.0
1685, 60.53814185644187, 163.135280328295, 0.0
1686, 63.19810967753553, 160.6263330955672, 0.0
1687, 65.57000869207593, 163.0400971676101, 0.0
1688, 62.91004087098227, 165.5490444003379, 0.0
1689, 63.0540752742589, 163.0876887479525, 0.0
1690, 49.23267885806703, 76.38107691824192, 0.0
1691, 46.37195504816179, 78.44057130476149, 0.0
1692, 46.81523728214578, 76.22864363926229, 0.0
1693, 52.58883113226052, 159.9395235625531, 0.0
1694, 50.93900102675065, 156.8910752093475, 0.0
1695, 54.37114117428015, 155.0423344525697, 0.0
1696, 53.47998615327035, 157.4909290075614, 0.0
1697, 78.01015330629247, 44.68436153924885, 0.0
1698, 80.4667218740927, 47.25730474183756, 0.0
1699, 78.15357453186829, 49.64502318992227, 0.0
1700, 75.69700596406805, 47.07207998733357, 0.0
1701, 78.08186391908038, 47.16469236458556, 0.0
1702, 41.19254727047107, 143.0253841091792, 0.0
1703, 39.32842661311116, 140.2984893945142, 0.0
1704, 42.04498088012155, 138.9428956552585, 0.0
1705, 41.6187640752963, 140.9841398822189, 0.0
1706, 87.74492087636162, 49.93238640196073, 0.0
1707, 90.19516548309544, 52.46904468613235, 0.0
1708, 87.80873615938879, 54.91505021173384, 0.0
1709, 85.35849155265497, 52.37839192756223, 0.0
1710, 87.7768285178752, 52.42371830684728, 0.0
1711, 56.33081730944936, 66.80159821475493, 0.0
1712, 56.31377915049202, 62.14465692748792, 0.0
1713, 56.32229822997068, 64.47312757112144, 0.0
1714, 78.97933165143691, 125.391602553426, 0.0
1715, 81.04890766020691, 127.8515053372955, 0.0
1716, 78.66279067606402, 130.2847020644585, 0.0
1717, 76.59321466729403, 127.8247992805891, 0.0
1718, 78.82106116375047, 127.8381523089423, 0.0
1719, 31.97686561089605, 165.5376026471149, 0.0
1720, 29.40005302107479, 162.9909403671168, 0.0
1721, 31.72341234947826, 160.6318020444358, 0.0
1722, 31.85013898018715, 163.0847023457753, 0.0
1723, 40.43064120205801, 61.44006431072943, 0.0
1724, 41.49324713878691, 63.74052226513354, 0.0
1725, 39.36831668285653, 64.61775200086004, 0.0
1726, 39.89947894245727, 63.02890815579473, 0.0
1727, 43.2104351644926, 145.6035767849616, 0.0
1728, 40.69502586736844, 147.2061570215457, 0.0
1729, 40.94378656891976, 145.1157705653625, 0.0
1730, 73.04522209099363, 39.54552354767701, 0.0
1731, 75.53904259318846, 42.11847454884592, 0.0
1732, 73.22487455138425, 44.48600958841316, 0.0
1733, 70.73105404918942, 41.91305858724424, 0.0
1734, 73.13504832118893, 42.01576656804508, 0.0
1735, 49.52335853410375, 54.4351763564548, 0.0
1736, 51.37612327007561, 52.49371411427285, 0.0
1737, 53.66202783545434, 54.91174380381338, 0.0
1738, 51.80926309948248, 56.85320604599534, 0.0
1739, 51.59269318477904, 54.67346008013409, 0.0
1740, 7.314378695701103, 59.99049825037336, 0.0
1741, 4.900683242839746, 57.48659295130926, 0.0
1742, 7.337260155383921, 54.95396425060336, 0.0
1743, 7.325819425542512, 57.47223125048836, 0.0
1744, 50.03434098387628, 31.65683436529994, 0.0
1745, 52.50680594475678, 29.28505921065696, 0.0
1746, 55.23472929804613, 31.71622915304556, 0.0
1747, 52.76226433716565, 34.08800430768855, 0.0
1748, 52.63453514096121, 31.68653175917275, 0.0
1749, 50.79692796270926, 88.12401111292087, 0.0
1750, 53.35118957592292, 86.99482975665187, 0.0
1751, 54.46767877845173, 89.25142098258812, 0.0
1752, 52.65104639994895, 88.59348847668907, 0.0
1753, 23.12352419139111, 75.3160599044418, 0.0
1754, 22.47665124993796, 72.59381901489198, 0.0
1755, 24.81978501805623, 71.86469066904009, 0.0
1756, 23.97165460472367, 73.59037528674094, 0.0
1757, 74.20021896817451, 130.0092445887283, 0.0
1758, 72.37286834818522, 127.5070027536943, 0.0
1759, 74.48304150773963, 127.6659010171417, 0.0
1760, 54.67322702268369, 147.0005397660741, 0.0
1761, 52.47506293207476, 144.4773078572265, 0.0
1762, 55.03346992272441, 141.6859835818619, 0.0
1763, 54.85334847270404, 144.343261673968, 0.0
1764, 29.00523568093335, 153.1405070580815, 0.0
1765, 26.70070996987532, 155.4928009884133, 0.0
1766, 24.26033621720563, 152.9237583847205, 0.0
1767, 26.56486192826366, 150.5714644543888, 0.0
1768, 26.63278594906949, 153.032132721401, 0.0
1769, 39.82737370727844, 173.0513183522054, 0.0
1770, 37.37642528053478, 175.4344980391837, 0.0
1771, 34.76404714366819, 172.9509179574622, 0.0
1772, 37.29571042547332, 173.0011181548338, 0.0
1773, 49.92339528127893, 67.84167648857837, 0.0
1774, 54.11099051658275, 68.46265724416232, 0.0
1775, 51.96782427884555, 70.33312330802502, 0.0
1776, 52.01719289893084, 68.15216686637034, 0.0
1777, 39.84809340340647, 17.25175063071372, 0.0
1778, 42.41003343697403, 14.80167774853704, 0.0
1779, 44.88790797008211, 17.21763385329127, 0.0
1780, 42.32596793651454, 19.66770673546795, 0.0
1781, 42.36800068674428, 17.2346922420025, 0.0
1782, 41.57017656049875, 92.15618094065141, 0.0
1783, 41.76629322771998, 89.9851912508489, 0.0
1784, 44.74716562137205, 89.67407872584188, 0.0
1785, 43.10529545770089, 90.83524755793893, 0.0
1786, 31.29566223265932, 89.76892133441518, 0.0
1787, 27.45268417699539, 90.77979611543344, 0.0
1788, 26.62702636940811, 87.61507392496846, 0.0
1789, 30.47000442507204, 86.60419914395021, 0.0
1790, 28.96134430103372, 88.69199762969183, 0.0
1791, 20.91235950827394, 70.61897490797818, 0.0
1792, 20.46323147575049, 74.51469805789424, 0.0
1793, 20.68779549201221, 72.56683648293622, 0.0
1794, 7.467011140420606, 100.160968826258, 0.0
1795, 4.922268877317141, 97.56211138948959, 0.0
1796, 7.41330754334352, 95.07658261162956, 0.0
1797, 7.440159341882064, 97.61877571894377, 0.0
1798, 57.03874565064851, 139.2547830900106, 0.0
1799, 59.18394412385115, 139.1864327239746, 0.0
1800, 34.71629931370295, 22.17866570414422, 0.0
1801, 37.29277143723044, 19.71758453590499, 0.0
1802, 39.73612889176074, 22.10684276152805, 0.0
1803, 37.15965676823325, 24.56792392976728, 0.0
1804, 37.22621410273184, 22.14275423283614, 0.0
1805, 52.97999533161622, 149.2801487658626, 0.0
1806, 53.08137196612891, 152.826434412525, 0.0
1807, 50.08957652918632, 153.0208280507054, 0.0
1808, 51.53478593040126, 151.150488408284, 0.0
1809, 83.01091666585577, 145.1370546939579, 0.0
1810, 85.36823753877185, 147.5738171232171, 0.0
1811, 82.93688586455917, 150.1152719318025, 0.0
1812, 82.97390126520747, 147.6261633128802, 0.0
1813, 21.65225024893954, 140.4116233393765, 0.0
1814, 19.25510920496233, 137.8257944323812, 0.0
1815, 21.54751570113196, 135.3574083371106, 0.0
1816, 23.94465674510916, 137.9432372441059, 0.0
1817, 21.59988297503575, 137.8845158382435, 0.0
1818, 33.06508612707051, 82.89264309904976, 0.0
1819, 33.68426632202931, 85.78411799904117, 0.0
1820, 31.76754527607128, 84.7484211215, 0.0
1821, 83.34460158097198, 89.80853623825415, 0.0
1822, 85.6436179857084, 92.30501472823755, 0.0
1823, 83.36205022081015, 94.69978642200566, 0.0
1824, 81.06303381607373, 92.20330793202226, 0.0
1825, 83.35332590089106, 92.2541613301299, 0.0
1826, 19.5614635055943, 42.27925357056793, 0.0
1827, 17.11246155123194, 44.82611370383771, 0.0
1828, 14.734491419875, 42.3863614163668, 0.0
1829, 17.18349337423737, 39.83950128309703, 0.0
1830, 17.14797746273465, 42.33280749346736, 0.0
1831, 21.32294025387245, 120.5413248934496, 0.0
1832, 19.10929812217969, 118.0627659190526, 0.0
1833, 21.37069509557457, 118.2137451053163, 0.0
1834, 7.266405440071637, 80.13253650146375, 0.0
1835, 4.852886771962792, 77.58105142795046, 0.0
1836, 7.254123755584563, 75.12336236319996, 0.0
1837, 9.667642423693408, 77.67484743671325, 0.0
1838, 7.260264597828101, 77.62794943233185, 0.0
1839, 61.64650510903952, 148.7040489606871, 0.0
1840, 64.04040323597263, 146.1176241086424, 0.0
1841, 66.29811343077381, 148.372466629007, 0.0
1842, 63.90421530384069, 150.9588914810517, 0.0
1843, 63.97230926990667, 148.5382577948471, 0.0
1844, 18.06111750346304, 99.5633483154343, 0.0
1845, 21.09962871224179, 100.2062219918982, 0.0
1846, 17.56874431707999, 101.8809553415757, 0.0
1847, 19.33418651466089, 101.043588666737, 0.0
1848, 12.08197431891865, 115.2685483307193, 0.0
1849, 9.722450470296138, 112.7156105065357, 0.0
1850, 12.13525800219029, 110.4408783158799, 0.0
1851, 14.4947818508128, 112.9938161400635, 0.0
1852, 12.10861616055447, 112.8547133232996, 0.0
1853, 75.08001776333903, 116.4207375814596, 0.0
1854, 77.07233216653003, 118.4097904632602, 0.0
1855, 73.10752688693586, 118.7837133998152, 0.0
1856, 75.08992952673294, 118.5967519315377, 0.0
1857, 83.55220951500144, 115.4996466739761, 0.0
1858, 83.5379902784428, 110.5735402214307, 0.0
1859, 83.54509989672212, 113.0365934477034, 0.0
1860, 92.7704354058218, 99.97100603220107, 0.0
1861, 95.15732149438372, 102.4930184773968, 0.0
1862, 92.7830373473771, 105.0195622889716, 0.0
1863, 92.77673637659944, 102.4952841605863, 0.0
1864, 68.41178851784672, 126.8705870368861, 0.0
1865, 70.75631886598269, 124.999583389063, 0.0
1866, 70.02833800004925, 129.3780064015174, 0.0
1867, 70.39232843301598, 127.1887948952902, 0.0
1868, 49.75713143964491, 58.80550230059406, 0.0
1869, 54.01597941716941, 59.45658231224799, 0.0
1870, 51.88655542840716, 59.13104230642102, 0.0
1871, 65.37301648842931, 167.9506293967623, 0.0
1872, 62.76017283877422, 170.4589443003985, 0.0
1873, 62.83510685487825, 168.0039943503682, 0.0
1874, 66.2161690750973, 143.4869182283421, 0.0
1875, 63.93065108363642, 143.6870524393183, 0.0
1876, 62.67422114840922, 24.61323676106336, 0.0
1877, 60.11563993332634, 22.13944274569975, 0.0
1878, 62.60269812745453, 19.74230127498338, 0.0
1879, 65.16127934253741, 22.21609529034698, 0.0
1880, 62.63845963793187, 22.17776901802337, 0.0
1881, 31.2744134946276, 145.9830344601164, 0.0
1882, 33.67248054552521, 148.6046552776828, 0.0
1883, 31.29624282174079, 150.8438580310539, 0.0
1884, 28.89817577084318, 148.2222372134874, 0.0
1885, 31.2853281581842, 148.4134462455851, 0.0
1886, 87.60371519217568, 34.93820922349064, 0.0
1887, 90.08433518325387, 37.46928786844338, 0.0
1888, 87.64050182746857, 39.93838806184909, 0.0
1889, 85.15988183639037, 37.40730941689635, 0.0
1890, 87.62210850982214, 37.43829864266986, 0.0
1891, 12.04906564703568, 75.16935631894242, 0.0
1892, 9.65848850314826, 72.63997217534131, 0.0
1893, 12.01187187849866, 70.13409099936459, 0.0
1894, 12.03046876276717, 72.6517236591535, 0.0
1895, 17.0345359556071, 106.1432043833526, 0.0
1896, 15.3156692311456, 103.2342185991348, 0.0
1897, 17.30164013634354, 104.0120798624641, 0.0
1898, 75.5709650845414, 157.7870542213735, 0.0
1899, 78.04355541325705, 155.2381235840309, 0.0
1900, 80.39555821097971, 157.6622451461433, 0.0
1901, 77.92296788226408, 160.2111757834859, 0.0
1902, 77.98326164776057, 157.7246496837584, 0.0
1903, 19.72279624839778, 32.31733437715738, 0.0
1904, 17.24443138976462, 34.85063206917208, 0.0
1905, 14.8333570808772, 32.40979876035125, 0.0
1906, 17.31172193951036, 29.87650106833656, 0.0
1907, 17.27807666463749, 32.36356656875432, 0.0
1908, 83.2780540688428, 74.6446677889161, 0.0
1909, 85.60545049225115, 77.23510096644955, 0.0
1910, 83.27962788800639, 79.73764713388806, 0.0
1911, 80.95223146459804, 77.14721395635459, 0.0
1912, 83.2788409784246, 77.19115746140207, 0.0
1913, 66.79952955012715, 124.4329358030077, 0.0
1914, 66.4528223375608, 126.560244573287, 0.0
1915, 28.37666135658746, 61.80508089951579, 0.0
1916, 26.48496940200464, 64.69611324731792, 0.0
1917, 26.37844109301621, 62.34692429790786, 0.0
1918, 16.94897875322659, 85.42607223326516, 0.0
1919, 14.56964538462931, 82.76903591264157, 0.0
1920, 17.42506158035825, 80.19369886555276, 0.0
1921, 19.80439494895553, 82.85073518617635, 0.0
1922, 17.18702016679241, 82.80988554940896, 0.0
1923, 43.42483302602831, 65.3383477115145, 0.0
1924, 45.48706186776928, 67.54501317606417, 0.0
1925, 43.14464344941923, 69.49455762402724, 0.0
1926, 41.08241460767826, 67.28789215947758, 0.0
1927, 43.28473823772377, 67.41645266777087, 0.0
1928, 52.25878030360323, 45.89996898410709, 0.0
1929, 50.55486711000028, 48.1514816901733, 0.0
1930, 50.03553483547722, 45.9262897877616, 0.0
1931, 23.42906829755469, 96.27191512656646, 0.0
1932, 21.65749202751998, 98.12807876528706, 0.0
1933, 19.88078198994048, 96.56287369133719, 0.0
1934, 21.65235825997519, 94.70671005261659, 0.0
1935, 21.65492514374759, 96.41739440895182, 0.0
1936, 16.76256224134531, 125.2169235752947, 0.0
1937, 14.44611258920122, 122.6845531350935, 0.0
1938, 16.76250201924874, 120.3297375285438, 0.0
1939, 19.07895167139283, 122.862107968745, 0.0
1940, 16.76253213029702, 122.7733305519193, 0.0
1941, 90.37448961211344, 97.43812445885237, 0.0
1942, 92.75856891469128, 94.95011401600635, 0.0
1943, 95.15451470839965, 97.48299558935506, 0.0
1944, 92.76450216025654, 97.46056002410373, 0.0
1945, 78.65207211989184, 79.84605483148113, 0.0
1946, 80.95513046696709, 82.2729008615955, 0.0
1947, 78.7093975972959, 85.03966840474982, 0.0
1948, 78.68073485859388, 82.44286161811547, 0.0
1949, 90.39391424796311, 117.6619953315164, 0.0
1950, 92.78170447313258, 115.0970574313528, 0.0
1951, 95.15824191986638, 117.5583771926258, 0.0
1952, 92.77045169469693, 120.1233150927895, 0.0
1953, 92.77607808391474, 117.6101862620711, 0.0
1954, 64.09146909898071, 48.82477340857218, 0.0
1955, 61.5313876006622, 46.27108862873298, 0.0
1956, 63.67764428389962, 44.00074647415193, 0.0
1957, 66.23772578221815, 46.55443125399113, 0.0
1958, 63.88455669144017, 46.41275994136205, 0.0
1959, 68.17132961812302, 106.8373788809829, 0.0
1960, 71.99587303157264, 106.0365546170533, 0.0
1961, 70.25234186280568, 108.3945186058739, 0.0
1962, 70.08360132484782, 106.4369667490181, 0.0
1963, 33.73332202496132, 95.37239076118566, 0.0
1964, 30.66031420239141, 97.07542173329149, 0.0
1965, 29.19081426694863, 94.33539825770262, 0.0
1966, 32.26382208951855, 92.63236728559679, 0.0
1967, 31.46206814595498, 94.85389450944413, 0.0
1968, 76.05462956645638, 56.92249584082861, 0.0
1969, 78.30571497239163, 54.5889045203517, 0.0
1970, 80.71042945450034, 57.16501519869792, 0.0
1971, 78.45934404856511, 59.49860651917482, 0.0
1972, 78.38252951047835, 57.04375551976327, 0.0
1973, 92.74027397860084, 79.94000387441815, 0.0
1974, 95.14468743228915, 82.4873391463911, 0.0
1975, 92.74503537393613, 84.94749881083624, 0.0
1976, 92.74265467626849, 82.4437513426272, 0.0
1977, 7.324420484391675, 140.0263395854293, 0.0
1978, 4.888950170958884, 137.4836228961451, 0.0
1979, 7.300220716713933, 135.0027596441743, 0.0
1980, 7.312320600552804, 137.5145496148018, 0.0
1981, 57.63408834413934, 175.4458366491365, 0.0
1982, 60.145613381331, 177.8351962770104, 0.0
1983, 57.60683728658283, 180.2980686089278, 0.0
1984, 55.09531224939117, 177.9087089810538, 0.0
1985, 57.62046281536108, 177.8719526290321, 0.0
1986, 9.69681139257225, 117.6194803365699, 0.0
1987, 7.282458924997556, 120.0450777862848, 0.0
1988, 4.871860351806825, 117.5270711820546, 0.0
1989, 7.28621281938152, 115.1014737323397, 0.0
1990, 7.284335872189537, 117.5732757593122, 0.0
1991, 53.36637392201094, 38.89573973952794, 0.0
1992, 56.1998088539587, 41.30300673260427, 0.0
1993, 54.17098973352, 43.6507860787023, 0.0
1994, 53.76868182776548, 41.27326290911512, 0.0
1995, 14.45397854404279, 117.8032394076255, 0.0
1996, 16.80077464697374, 115.5362677981342, 0.0
1997, 16.78163833311124, 117.933002663339, 0.0
1998, 53.06248073389421, 50.4228942193416, 0.0
1999, 48.86850964618168, 50.22230158510455, 0.0
2000, 50.96549519003794, 50.32259790222307, 0.0
2001, 87.75999265280747, 150.0425505708114, 0.0
2002, 87.80893278221475, 145.0564743195562, 0.0
2003, 90.20068789625037, 147.5252077671507, 0.0
2004, 87.78446271751112, 147.5495124451839, 0.0
2005, 9.835724653881215, 92.59562894141024, 0.0
2006, 12.16917431830602, 90.10572607324656, 0.0
2007, 14.72589812221781, 92.55118089273427, 0.0
2008, 12.28081138804951, 92.57340491707225, 0.0
2009, 79.1663253381528, 120.5946322808977, 0.0
2010, 79.07282849479485, 122.9931174171618, 0.0
2011, 4.901708259101485, 92.54078204459628, 0.0
2012, 7.32412536963918, 90.05982837437696, 0.0
2013, 7.368716456491351, 92.56820549300328, 0.0
2014, 90.35112458147874, 127.6898523544972, 0.0
2015, 92.75997805065666, 125.1402768615964, 0.0
2016, 95.14314660337405, 127.5868177238725, 0.0
2017, 92.73429313419615, 130.1363932167733, 0.0
2018, 92.74713559242642, 127.6383350391849, 0.0
2019, 55.36320674959478, 163.0584173538887, 0.0
2020, 57.95067430301833, 163.0968488410919, 0.0
2021, 62.68755235036011, 175.3531143360046, 0.0
2022, 65.17153706928352, 177.7534992588352, 0.0
2023, 62.6295981002544, 180.2355811998411, 0.0
2024, 62.65857522530726, 177.7943477679228, 0.0
2025, 83.27850829620546, 84.80715934645163, 0.0
2026, 85.61870982077248, 87.30234625367454, 0.0
2027, 81.00440005640496, 87.31334933103123, 0.0
2028, 83.31155493858873, 87.30784779235289, 0.0
2029, 4.879121872334109, 112.5590424987495, 0.0
2030, 7.315359523248728, 110.1731792729454, 0.0
2031, 7.300786171315124, 112.6373265026426, 0.0
2032, 16.86304656800673, 135.2375736872911, 0.0
2033, 16.92286816892089, 140.2666479717859, 0.0
2034, 16.89295736846381, 137.7521108295385, 0.0
2035, 92.70777337326399, 64.95561723466724, 0.0
2036, 95.12623462816981, 67.4900252510418, 0.0
2037, 92.72500600126189, 69.94347665884956, 0.0
2038, 92.71638968726295, 67.4495469467584, 0.0
2039, 90.25850660022896, 137.5997399704, 0.0
2040, 92.69203967030445, 135.0971844587788, 0.0
2041, 95.10372427924263, 137.5461997396864, 0.0
2042, 92.67019120916713, 140.0487552513076, 0.0
2043, 92.68111543973579, 137.5729698550432, 0.0
2044, 78.88145415861484, 89.96519708173295, 0.0
2045, 78.79542587795538, 87.5024327432414, 0.0
2046, 83.12989431308091, 59.71915294067882, 0.0
2047, 85.513533354085, 62.29032575861839, 0.0
2048, 83.20848419705693, 64.65757503284468, 0.0
2049, 80.82484515605285, 62.08640221490511, 0.0
2050, 83.16918925506891, 62.18836398676176, 0.0
2051, 39.92786914167863, 12.36075344758368, 0.0
2052, 42.46322930269154, 9.897083214347763, 0.0
2053, 44.94539359798695, 12.33800751530112, 0.0
2054, 42.43663136983278, 12.3493804814424, 0.0
2055, 76.36939984195688, 77.26480893608986, 0.0
2056, 78.66955918666308, 74.56596806096331, 0.0
2057, 78.66081565327745, 77.20601144622222, 0.0
2058, 70.59669550261489, 137.7141016461298, 0.0
2059, 68.50426817189398, 140.8166700356145, 0.0
2060, 67.76723963546642, 135.6538232041444, 0.0
2061, 68.13575390368018, 138.2352466198795, 0.0
2062, 17.18997060175663, 94.78465304678397, 0.0
2063, 17.62554405260983, 97.17400068110913, 0.0
2064, 55.05284829297241, 187.6458157848095, 0.0
2065, 52.53927208576263, 190.1050204390849, 0.0
2066, 50.05054805805396, 187.6634519143932, 0.0
2067, 52.56412426526374, 185.2042472601178, 0.0
2068, 52.55169817551319, 187.6546338496014, 0.0
2069, 90.16263408578499, 152.5237637225699, 0.0
2070, 87.70552808954656, 155.0494594292252, 0.0
2071, 85.30288665656904, 152.5682462774667, 0.0
2072, 87.73276037117701, 152.5460050000183, 0.0
2073, 21.4289189929131, 130.3016168278413, 0.0
2074, 23.79527066032836, 132.8685737052032, 0.0
2075, 19.1811640337167, 132.7904514597486, 0.0
2076, 21.48821734702253, 132.829512582476, 0.0
2077, 82.62881046110365, 29.88659146783449, 0.0
2078, 85.11575522644446, 32.41598057916416, 0.0
2079, 82.68322849560758, 34.86275062510296, 0.0
2080, 80.19628373026677, 32.33336151377328, 0.0
2081, 82.65601947835563, 32.37467104646872, 0.0
2082, 55.00092695075571, 12.3421353033431, 0.0
2083, 57.50584293860422, 9.896772648616523, 0.0
2084, 60.02782930835419, 12.3644813910843, 0.0
2085, 57.52291332050567, 14.80984404581088, 0.0
2086, 57.51437812955494, 12.3533083472137, 0.0
2087, 16.83261744805463, 65.18613408821332, 0.0
2088, 14.4877742498984, 62.53873722158026, 0.0
2089, 16.93746877275759, 60.0176126300637, 0.0
2090, 16.88504311040612, 62.60187335913851, 0.0
2091, 22.27186989372295, 170.178785400502, 0.0
2092, 24.78738425845825, 172.7118973148756, 0.0
2093, 22.36089926842953, 175.1443922601624, 0.0
2094, 19.84538490369424, 172.6112803457887, 0.0
2095, 22.31638458107625, 172.6615888303322, 0.0
2096, 19.11179619788928, 127.7799169983612, 0.0
2097, 21.33440090045302, 125.3540921192698, 0.0
2098, 21.38165994668307, 127.8278544735555, 0.0
2099, 74.07736419143912, 64.1357938450284, 0.0
2100, 71.71941220482628, 61.52816501369398, 0.0
2101, 73.86648921313301, 59.21945349713461, 0.0
2102, 76.22444119974584, 61.82708232846903, 0.0
2103, 73.97192670228605, 61.67762367108151, 0.0
2104, 82.83005252899014, 44.83204806805099, 0.0
2105, 85.28262487305648, 47.39401489632831, 0.0
2106, 82.91929421815905, 49.81927157011488, 0.0
2107, 82.87467337357458, 47.32565981908294, 0.0
2108, 49.98715165813719, 7.418568527571804, 0.0
2109, 52.49513122841837, 4.953199549230943, 0.0
2110, 54.9971873608725, 7.421249402545998, 0.0
2111, 52.48920779059132, 9.886618380886858, 0.0
2112, 52.49216950950485, 7.4199089650589, 0.0
2113, 87.98942183229968, 89.86629582042762, 0.0
2114, 90.35492480637436, 92.41995122088179, 0.0
2115, 88.00912095978308, 94.8586701286917, 0.0
2116, 87.99927139604138, 92.36248297455967, 0.0
2117, 56.79652859593529, 153.4752743925543, 0.0
2118, 55.50675938778404, 151.2593743525097, 0.0
2119, 54.9389502810321, 153.1508544025397, 0.0
2120, 88.0618096984537, 120.2466934723134, 0.0
2121, 90.3775447161938, 122.6843581474797, 0.0
2122, 88.03133270586406, 125.244737488329, 0.0
2123, 88.04657120215889, 122.7457154803212, 0.0
2124, 70.37890986968699, 167.818795465654, 0.0
2125, 72.90891319993982, 165.2911738688496, 0.0
2126, 75.31993177573116, 167.7081053132197, 0.0
2127, 72.78992844547834, 170.2357269100242, 0.0
2128, 72.84942082270908, 167.7634503894369, 0.0
2129, 30.97912157768838, 60.38633959861057, 0.0
2130, 30.9304409549563, 55.0489180705169, 0.0
2131, 30.95478126632234, 57.71762883456373, 0.0
2132, 92.65286147831122, 145.0205340777103, 0.0
2133, 95.08213146961265, 147.5087758121633, 0.0
2134, 92.62995788755178, 150.0134495016036, 0.0
2135, 92.64140968293151, 147.516991789657, 0.0
2136, 87.96482732276718, 74.8103309841197, 0.0
2137, 90.33196525618433, 77.39581502016121, 0.0
2138, 87.96870787421774, 77.31545799330539, 0.0
2139, 55.09639880324109, 173.0534685831858, 0.0
2140, 60.1954382582085, 172.9581042985759, 0.0
2141, 57.64591853072479, 173.0057864408809, 0.0
2142, 45.02992866766088, 192.5796513276947, 0.0
2143, 42.5191930938236, 195.0454918077088, 0.0
2144, 40.02701232461016, 192.5774712720456, 0.0
2145, 42.53774789844744, 190.1116307920314, 0.0
2146, 42.52847049613551, 192.5785612998702, 0.0
2147, 75.1411381201602, 177.6198596267554, 0.0
2148, 72.61592881056004, 180.1182935739234, 0.0
2149, 70.1694651632247, 177.6758218808392, 0.0
2150, 72.69467447282487, 175.1773879336711, 0.0
2151, 72.65530164169246, 177.6478407537973, 0.0
2152, 41.51306603256758, 160.7718314905187, 0.0
2153, 44.26614280989517, 163.1619378360214, 0.0
2154, 42.00137642506932, 165.6942913545449, 0.0
2155, 41.75722122881845, 163.2330614225318, 0.0
2156, 35.00918658888736, 187.6324841511058, 0.0
2157, 32.51420665854351, 190.0807377503043, 0.0
2158, 29.99528597265921, 187.5972783985182, 0.0
2159, 32.49026590300306, 185.1490247993197, 0.0
2160, 32.50223628077329, 187.614881274812, 0.0
2161, 27.21108558678913, 170.3052718821704, 0.0
2162, 29.75521230860274, 172.8323036504717, 0.0
2163, 27.33151098027187, 175.2389290831769, 0.0
2164, 27.2712982835305, 172.7721004826737, 0.0
2165, 23.81008389082405, 87.80029053726497, 0.0
2166, 23.81353498611618, 84.44481953433468, 0.0
2167, 25.22028067776215, 86.02994672965157, 0.0
2168, 85.75568746235163, 117.8277019830871, 0.0
2169, 81.30190858559718, 118.0738711953636, 0.0
2170, 83.5287980239744, 117.9507865892253, 0.0
2171, 68.45170243273951, 44.2477212141123, 0.0
2172, 65.90359863801777, 41.6869530630146, 0.0
2173, 68.1829502544677, 39.35229043614654, 0.0
2174, 68.31732634360358, 41.80000582512942, 0.0
2175, 90.2307077195334, 142.5483782354718, 0.0
2176, 95.09234496794497, 142.520911093546, 0.0
2177, 92.66152634373918, 142.5346446645089, 0.0
2178, 12.07548821163374, 125.073840098382, 0.0
2179, 9.69819124012891, 122.5434583767646, 0.0
2180, 12.06881561769639, 120.1541714134762, 0.0
2181, 12.07215191466507, 122.6140057559291, 0.0
2182, 80.93809911220913, 72.03978391288967, 0.0
2183, 83.2521133149317, 69.6189869366263, 0.0
2184, 85.59206827156538, 72.22387081265273, 0.0
2185, 83.26508369188726, 72.13182736277122, 0.0
2186, 9.804861756288837, 147.5647724974034, 0.0
2187, 7.373983684426483, 150.034057074506, 0.0
2188, 4.919107243219791, 147.5119962250797, 0.0
2189, 7.349985315082144, 145.0427116479771, 0.0
2190, 7.361984499754314, 147.5383843612416, 0.0
2191, 95.1568173120954, 107.5112099077927, 0.0
2192, 92.78120547550618, 110.060139395238, 0.0
2193, 90.4074255107879, 107.5684917764169, 0.0
2194, 92.78212141144164, 107.5398508421048, 0.0
2195, 70.26271054639517, 172.7479516664158, 0.0
2196, 75.22189237190804, 172.6651631772795, 0.0
2197, 72.7423014591516, 172.7065574218477, 0.0
2198, 17.40419870365785, 175.071309886727, 0.0
2199, 14.90584585958072, 172.5401680767255, 0.0
2200, 17.34703205961711, 170.0801385357872, 0.0
2201, 17.37561538163748, 172.5757242112571, 0.0
2202, 79.00838097160295, 94.54462175789743, 0.0
2203, 80.66884520531232, 97.2596517421789, 0.0
2204, 78.63510374073667, 98.76010470648508, 0.0
2205, 76.97463950702729, 96.04507472220362, 0.0
2206, 78.8217423561698, 96.65236323219128, 0.0
2207, 16.89387540179201, 110.7959736275843, 0.0
2208, 16.84732502438288, 113.1661207128593, 0.0
2209, 85.66465713716214, 97.36157527166256, 0.0
2210, 88.01957337463779, 97.39984986525747, 0.0
2211, 95.14636422888844, 92.48656435737641, 0.0
2212, 92.7427201205715, 89.95640156225184, 0.0
2213, 92.7506445176314, 92.45325778912911, 0.0
2214, 7.284907311055365, 85.10118303659934, 0.0
2215, 9.731299797122844, 87.61438513799335, 0.0
2216, 4.877732883571701, 87.54662627298295, 0.0
2217, 7.304516340347272, 87.58050570548815, 0.0
2218, 77.7862089057767, 34.75410531910094, 0.0
2219, 75.28828691455708, 32.22714310763617, 0.0
2220, 77.69836173904713, 29.8063993023085, 0.0
2221, 77.74228532241193, 32.28025231070473, 0.0
2222, 24.2300293543246, 47.16487746542751, 0.0
2223, 21.80720459515487, 49.75307110466497, 0.0
2224, 19.48001162273194, 47.28788988706901, 0.0
2225, 21.90283638190168, 44.69969624783155, 0.0
2226, 21.85502048852827, 47.22638367624826, 0.0
2227, 9.678627760840234, 67.5827380772207, 0.0
2228, 12.07253769051655, 65.07064479938006, 0.0
2229, 14.40578180817498, 67.62199772152397, 0.0
2230, 12.04220478450761, 67.60236789937233, 0.0
2231, 16.81281471566248, 130.1902640943013, 0.0
2232, 14.46358075911851, 127.6272706712348, 0.0
2233, 16.7876884785039, 127.703593834798, 0.0
2234, 49.13997806338193, 155.2836116267601, 0.0
2235, 82.9714521216643, 99.92144059183579, 0.0
2236, 83.16675117123722, 97.31061350692073, 0.0
2237, 70.34506900714426, 91.36892031503076, 0.0
2238, 68.24690599349293, 89.90482796615554, 0.0
2239, 70.24738353588035, 87.11285061618969, 0.0
2240, 70.29622627151231, 89.24088546561023, 0.0
2241, 37.46590180491242, 180.3013519559119, 0.0
2242, 40.00768940538351, 182.765960575351, 0.0
2243, 37.51388897310778, 185.1866277598375, 0.0
2244, 34.9721013726367, 182.7220191403985, 0.0
2245, 37.4898953890101, 182.7439898578747, 0.0
2246, 9.94464332027298, 102.7821227140573, 0.0
2247, 7.397492319683117, 105.2062089513153, 0.0
2248, 4.919860139830742, 102.585055063516, 0.0
2249, 7.432251730051862, 102.6835888887867, 0.0
2250, 83.3806731846977, 105.487030423659, 0.0
2251, 80.64416308083804, 102.8577903394485, 0.0
2252, 83.17606265318102, 102.7042355077474, 0.0
2253, 95.15805651623438, 112.5329061528153, 0.0
2254, 92.78145497431939, 112.5785984132954, 0.0
2255, 49.9466733226356, 17.20657371076493, 0.0
2256, 52.4827695451049, 14.78641212610026, 0.0
2257, 55.01214541300678, 17.22841048822801, 0.0
2258, 52.47940936782119, 17.21749209949647, 0.0
2259, 73.12526839177939, 135.037535684696, 0.0
2260, 75.91861274627368, 137.7844325450426, 0.0
2261, 73.39003985710919, 140.4609985064764, 0.0
2262, 73.25765412444429, 137.7492670955862, 0.0
2263, 71.01288631009834, 143.1044357908915, 0.0
2264, 68.72478721330165, 145.774683983619, 0.0
2265, 68.61452769259782, 143.2956770096168, 0.0
2266, 9.813876748067887, 107.7968321470869, 0.0
2267, 4.898975094863958, 107.5825560771738, 0.0
2268, 7.356425921465922, 107.6896941121304, 0.0
2269, 95.14600427115616, 87.4884666512186, 0.0
2270, 90.34175122335148, 87.41543372186948, 0.0
2271, 92.74387774725382, 87.45195018654404, 0.0
2272, 12.32440508748543, 105.5968573548111, 0.0
2273, 14.64578634160783, 108.2409035236041, 0.0
2274, 12.22983154483786, 108.0188678353455, 0.0
2275, 7.261499471484719, 70.08729308082528, 0.0
2276, 4.869501600498721, 67.54534140043276, 0.0
2277, 7.286629889854237, 65.04078639682818, 0.0
2278, 7.274064680669477, 67.56403973882672, 0.0
2279, 95.12473367697423, 132.5742122206777, 0.0
2280, 90.30159912752637, 132.6593654548744, 0.0
2281, 92.71316640225031, 132.6167888377761, 0.0
2282, 12.07539496830752, 117.7113598720977, 0.0
2283, 12.63015627570929, 103.0081706565961, 0.0
2284, 9.689529667882047, 82.66388921936306, 0.0
2285, 4.861783083244956, 82.56983031870003, 0.0
2286, 7.275656375563502, 82.61685976903154, 0.0
2287, 95.13588443453345, 77.49130021221558, 0.0
2288, 92.72757571211696, 74.94711135795863, 0.0
2289, 92.7339248453589, 77.44355761618839, 0.0
2290, 12.13506421028416, 85.20904452102809, 0.0
2291, 14.57293873146733, 87.70038545628131, 0.0
2292, 12.15211926429509, 87.65738529713732, 0.0
2293, 70.09475796494885, 182.6111643580995, 0.0
2294, 75.0776001404129, 182.5766616905652, 0.0
2295, 72.55642929480172, 185.0695324747413, 0.0
2296, 72.58617905268088, 182.5939130243323, 0.0
2297, 12.27734515314903, 44.90650950770127, 0.0
2298, 9.860528883021185, 42.44340228869484, 0.0
2299, 12.31767514974715, 39.92325419736037, 0.0
2300, 12.29751015144809, 42.41488185253083, 0.0
2301, 16.98111964262679, 54.87564198375131, 0.0
2302, 19.3582066913983, 57.4538760505714, 0.0
2303, 16.95929420769219, 57.4466273069075, 0.0
2304, 78.58994230723357, 64.41487802419933, 0.0
2305, 80.90035036530165, 67.02880484589133, 0.0
2306, 78.65907945878055, 69.39917001757968, 0.0
2307, 76.34867140071248, 66.78524319588766, 0.0
2308, 78.62451088300706, 66.90702402088951, 0.0
2309, 27.41909423070326, 180.1689385833016, 0.0
2310, 24.87987518501064, 177.6612294283914, 0.0
2311, 29.87073002596448, 177.7466382380871, 0.0
2312, 27.37530260548756, 177.7039338332393, 0.0
2313, 14.49469724995251, 132.6373863218438, 0.0
2314, 16.83793064183461, 132.7139188907962, 0.0
2315, 16.94846906727699, 90.12661092948395, 0.0
2316, 19.4125415468158, 92.36008308353365, 0.0
2317, 17.06921983451681, 92.45563198813396, 0.0
2318, 83.02334680631822, 54.78446290056018, 0.0
2319, 80.58414947182229, 52.22534254311283, 0.0
2320, 82.97132051223863, 52.30186723533753, 0.0
2321, 4.8741891612323, 122.4912894329038, 0.0
2322, 7.289921476363654, 124.9896700233836, 0.0
2323, 7.286190200680604, 122.5173739048342, 0.0
2324, 74.22079269099356, 69.16892368772339, 0.0
2325, 74.14907844121635, 66.6523587663759, 0.0
2326, 87.86965625812883, 59.88247123760276, 0.0
2327, 90.27557507570052, 62.43394734013042, 0.0
2328, 87.89455421489276, 62.3621365493744, 0.0
2329, 85.55046411382253, 132.7387840871592, 0.0
2330, 87.96218806715922, 130.2295053092935, 0.0
2331, 87.88987517418967, 135.1686442327401, 0.0
2332, 87.92603162067445, 132.6990747710168, 0.0
2333, 95.15288502915979, 122.5792338069062, 0.0
2334, 92.7652148726768, 122.631795977193, 0.0
2335, 80.22698401298916, 167.6242265738384, 0.0
2336, 77.72758886755614, 170.1490558510445, 0.0
2337, 77.81932692116419, 165.1832760360136, 0.0
2338, 77.77345789436016, 167.6661659435291, 0.0
2339, 12.1241108422272, 80.22388061097652, 0.0
2340, 12.12958752625568, 82.71646256600232, 0.0
2341, 92.62179259724897, 49.98953468609574, 0.0
2342, 95.080818295852, 52.50482472069007, 0.0
2343, 92.65419118169845, 54.98433472072668, 0.0
2344, 92.63799188947371, 52.48693470341121, 0.0
2345, 19.40575729288773, 52.33036710543814, 0.0
2346, 14.62394259971889, 52.37875609174893, 0.0
2347, 17.04858024997983, 49.83348121343577, 0.0
2348, 17.01484994630331, 52.35456159859355, 0.0
2349, 9.897733711519901, 162.4963771777349, 0.0
2350, 12.33179991901751, 160.0280885918357, 0.0
2351, 14.80585059973067, 162.5516700370541, 0.0
2352, 12.37178439223306, 165.0199586229533, 0.0
2353, 12.35179215562528, 162.5240236073944, 0.0
2354, 16.96420567869955, 108.4695890054684, 0.0
2355, 95.13248294079068, 72.48910394043261, 0.0
2356, 90.32009877258817, 72.40148407637558, 0.0
2357, 92.72629085668943, 72.4452940084041, 0.0
2358, 47.30475426015779, 29.26192306786714, 0.0
2359, 44.73320403667066, 26.86777363035102, 0.0
2360, 47.32534315017589, 24.46284794408093, 0.0
2361, 49.89689337366302, 26.85699738159704, 0.0
2362, 47.31504870516684, 26.86238550597403, 0.0
2363, 47.49207854257246, 4.954293309373725, 0.0
2364, 47.47410430699099, 9.88567067246002, 0.0
2365, 44.97903119142626, 7.42139545426194, 0.0
2366, 47.48309142478173, 7.419981990916872, 0.0
2367, 76.18028295184038, 132.7433898893627, 0.0
2368, 80.8723985569516, 132.7916188885739, 0.0
2369, 78.38989083272796, 135.250306713478, 0.0
2370, 78.52634075439599, 132.7675043889682, 0.0
2371, 95.05068214303117, 157.5103634101339, 0.0
2372, 92.57869289081309, 160.0223075477926, 0.0
2373, 90.12742160898526, 157.5302797433814, 0.0
2374, 92.59941086120334, 155.0183356057227, 0.0
2375, 92.58905187600821, 157.5203215767576, 0.0
2376, 75.03410593579434, 187.5425897749035, 0.0
2377, 72.52118421004894, 190.0356549253102, 0.0
2378, 70.04350756905632, 187.562597625148, 0.0
2379, 72.53880675242533, 187.5525937000258, 0.0
2380, 80.15821498951672, 172.598968931628, 0.0
2381, 77.65251849386863, 175.1150762578629, 0.0
2382, 77.69005368071238, 172.6320660544537, 0.0
2383, 4.857134723921023, 72.57068326868391, 0.0
2384, 7.257811613534642, 72.60532772201262, 0.0
2385, 95.11055994359087, 62.49977190905775, 0.0
2386, 92.6783616460274, 59.97810201452093, 0.0
2387, 92.69306750964569, 62.46685962459409, 0.0
2388, 83.15096769805311, 135.2335590252173, 0.0
2389, 85.47729556647239, 137.662465708884, 0.0
2390, 83.06847575484505, 140.1673412136583, 0.0
2391, 80.74214788642578, 137.7384345299917, 0.0
2392, 83.1097217264491, 137.7004501194378, 0.0
2393, 9.887344017169891, 37.45674710714644, 0.0
2394, 7.411014985767466, 39.96671401940015, 0.0
2395, 4.954608929670577, 37.48478986444285, 0.0
2396, 7.430937961073003, 34.97482295218913, 0.0
2397, 7.420976473420234, 37.47076848579464, 0.0
2398, 7.393754976938093, 44.95417847697211, 0.0
2399, 4.944241079684373, 42.47749020767742, 0.0
2400, 7.402384981352779, 42.46044624818613, 0.0
2401, 76.39053953323449, 71.92535416565332, 0.0
2402, 74.1908563322807, 74.46065307789894, 0.0
2403, 72.02110949003975, 71.70422259996901, 0.0
2404, 74.20582451163713, 71.81478838281116, 0.0
2405, 39.97375956261752, 7.434529936530184, 0.0
2406, 42.48956145135223, 4.95884217644436, 0.0
2407, 42.47639537702189, 7.427962695396062, 0.0
2408, 21.74253893754825, 145.4150123914823, 0.0
2409, 19.33503568407426, 142.8357665304645, 0.0
2410, 24.05975350241353, 142.9908692003943, 0.0
2411, 21.69739459324389, 142.9133178654294, 0.0
2412, 19.04435673009778, 67.76767673909077, 0.0
2413, 23.8278437419803, 68.38028427292969, 0.0
2414, 21.43610023603904, 68.07398050601023, 0.0
2415, 4.873464926716434, 127.4710118877702, 0.0
2416, 9.705478992858364, 127.499459383611, 0.0
2417, 7.289022443211145, 129.9808012479975, 0.0
2418, 7.289471959787399, 127.4852356356906, 0.0
2419, 26.28416559530505, 135.4367561914629, 0.0
2420, 28.76995425436915, 138.0821250860021, 0.0
2421, 26.43044540417327, 140.5886061386451, 0.0
2422, 26.35730549973916, 138.012681165054, 0.0
2423, 92.54887060004856, 34.98089163367693, 0.0
2424, 95.0336404573259, 37.49607651685386, 0.0
2425, 92.56910504053121, 39.98447275162032, 0.0
2426, 92.55898782028987, 37.48268219264862, 0.0
2427, 39.83756965176282, 52.24040717799485, 0.0
2428, 38.1586921014744, 48.70490370280231, 0.0
2429, 41.01994624877484, 47.19820120687643, 0.0
2430, 42.69882379906326, 50.73370468206897, 0.0
2431, 40.42875795026883, 49.71930419243564, 0.0
2432, 14.85829685367413, 167.5416665078014, 0.0
2433, 12.41227714298623, 170.0202965141197, 0.0
2434, 9.925764681545154, 167.4985886292716, 0.0
2435, 12.39203076760964, 167.5201275685365, 0.0
2436, 14.50553406556947, 77.7183894932057, 0.0
2437, 12.08658824463144, 77.69661846495947, 0.0
2438, 87.95608352207677, 72.31267744451415, 0.0
2439, 9.716102714451685, 62.51619792822246, 0.0
2440, 4.884905871103655, 62.51508671897908, 0.0
2441, 7.300504292777669, 62.51564232360076, 0.0
2442, 87.98023052206197, 87.35888998777202, 0.0
2443, 77.62461738894882, 24.86397397747945, 0.0
2444, 80.13198632103564, 27.37239745465073, 0.0
2445, 75.19099280696032, 27.29797582513722, 0.0
2446, 77.66148956399797, 27.33518663989398, 0.0
2447, 65.10543597780762, 182.6618134467806, 0.0
2448, 62.57422765293094, 185.1377900700193, 0.0
2449, 60.09838977537773, 182.7115578230799, 0.0
2450, 62.60191287659266, 182.6866856349302, 0.0
2451, 47.54076264529884, 190.1134447246214, 0.0
2452, 50.02854093926027, 192.5783871638286, 0.0
2453, 47.5177069616223, 195.0445937669019, 0.0
2454, 47.52923480346058, 192.5790192457616, 0.0
2455, 27.95834103523174, 123.1569315966819, 0.0
2456, 23.57838948293264, 123.0333090439744, 0.0
2457, 25.76836525908219, 123.0951203203281, 0.0
2458, 17.06378410916772, 150.2202390278364, 0.0
2459, 19.49817101895398, 152.7615406730856, 0.0
2460, 17.12923662286209, 155.17140968618, 0.0
2461, 14.69484971307583, 152.6301080409308, 0.0
2462, 17.09651036601491, 152.6958243570082, 0.0
2463, 47.5647835454951, 34.1189966738375, 0.0
2464, 50.51345523489518, 36.46300332472506, 0.0
2465, 47.97521965054049, 36.5683633929535, 0.0
2466, 82.71260237663977, 165.1036406953508, 0.0
2467, 85.13921991478438, 167.5646895683856, 0.0
2468, 82.65360155113378, 170.0852754468732, 0.0
2469, 82.68310196388677, 167.594458071112, 0.0
2470, 78.66431932272181, 71.9825690392715, 0.0
2471, 59.47766626584362, 48.51975957163954, 0.0
2472, 56.8557271304313, 46.0291991729387, 0.0
2473, 58.90944846524988, 43.78052823003215, 0.0
2474, 59.19355736554675, 46.15014390083584, 0.0
2475, 22.47323147350534, 185.0679421218217, 0.0
2476, 24.98433404025038, 187.5663029756274, 0.0
2477, 22.4965075936837, 190.0360555561787, 0.0
2478, 19.98540502693865, 187.5376947023729, 0.0
2479, 22.48486953359452, 187.5519988390002, 0.0
2480, 37.39349383394542, 14.83557459391097, 0.0
2481, 34.92194441201959, 12.39148026201962, 0.0
2482, 37.45631971975281, 9.916659115692326, 0.0
2483, 37.42490677684911, 12.37611685480165, 0.0
2484, 65.5954423393822, 92.2516858847502, 0.0
2485, 63.60277289246305, 89.82368027459134, 0.0
2486, 65.92483944297797, 89.86425412037345, 0.0
2487, 7.439308634016595, 164.9906269676516, 0.0
2488, 4.958895973705156, 162.4879128041322, 0.0
2489, 7.417321051208461, 159.9936630142155, 0.0
2490, 7.428314842612528, 162.4921449909335, 0.0
2491, 70.96062290838034, 46.8344580506307, 0.0
2492, 68.74664625785898, 49.14116809050952, 0.0
2493, 68.59917434529925, 46.69444465231091, 0.0
2494, 21.82893907083002, 150.3723357686645, 0.0
2495, 19.41715216760155, 147.8101489973119, 0.0
2496, 24.15432584077672, 147.9771991628349, 0.0
2497, 21.78573900418914, 147.8936740800734, 0.0
2498, 12.35511405395865, 34.93236323025306, 0.0
2499, 9.913902962965539, 32.46352498178, 0.0
2500, 12.39214598988408, 29.94096051187818, 0.0
2501, 12.37363002192137, 32.43666187106562, 0.0
2502, 83.27189497272101, 130.2968439505158, 0.0
2503, 83.21143133538706, 132.7652014878665, 0.0
2504, 73.43275432106415, 49.4205284495511, 0.0
2505, 75.87514003243763, 52.00858516716114, 0.0
2506, 73.65296650679538, 54.32851532546531, 0.0
2507, 71.21058079542192, 51.74045860785527, 0.0
2508, 73.54286041392979, 51.8745218875082, 0.0
2509, 4.929324156961671, 47.46885499412753, 0.0
2510, 9.830040960800865, 47.42825956544284, 0.0
2511, 7.365610140824444, 49.94293608259825, 0.0
2512, 7.379682558881269, 47.44855727978518, 0.0
2513, 87.84592699251168, 140.0935614465439, 0.0
2514, 87.86790108335069, 137.631102839642, 0.0
2515, 33.75696362092917, 153.42460478561, 0.0
2516, 31.46595648012173, 155.7212538126376, 0.0
2517, 31.38109965093126, 153.2825559218458, 0.0
2518, 28.85833158511597, 143.2257088601843, 0.0
2519, 31.3722270858318, 140.9930712633764, 0.0
2520, 31.3233202902297, 143.4880528617463, 0.0
2521, 68.16047035780035, 160.4973447342421, 0.0
2522, 70.5366897822674, 162.8823046341004, 0.0
2523, 67.94622811654298, 165.4250570674685, 0.0
2524, 68.05334923717167, 162.9612009008553, 0.0
2525, 85.09784999498305, 172.552217855116, 0.0
2526, 82.602463433366, 175.0659113398708, 0.0
2527, 82.62803249224989, 172.5755933933719, 0.0
2528, 12.10193848217504, 62.52746757490136, 0.0
2529, 95.06673466297013, 152.5080213847564, 0.0
2530, 92.61468437437756, 152.5158925536632, 0.0
2531, 85.18750718173476, 162.5745736428329, 0.0
2532, 87.66385673464333, 160.0562793826925, 0.0
2533, 90.09995515144395, 162.5323188404145, 0.0
2534, 87.62360559853536, 165.0506131005549, 0.0
2535, 87.64373116658933, 162.5534462416238, 0.0
2536, 73.06452405218698, 160.3393987182028, 0.0
2537, 70.73242270845127, 157.944237873614, 0.0
2538, 73.2388637408057, 155.3918933767847, 0.0
2539, 73.15169389649634, 157.8656460474937, 0.0
2540, 77.57078351774021, 19.91382094361289, 0.0
2541, 80.07966646343071, 22.41336642578582, 0.0
2542, 75.11573444325832, 22.36442849530652, 0.0
2543, 77.59770045334452, 22.38889746054617, 0.0
2544, 87.68845587309573, 44.93716902881491, 0.0
2545, 90.15075187640088, 47.47554053444733, 0.0
2546, 87.71668837472868, 47.43477771538782, 0.0
2547, 9.78978144481059, 52.42765675868551, 0.0
2548, 12.23372598613166, 49.89345508794604, 0.0
2549, 12.20686202226474, 52.40320642521722, 0.0
2550, 97.5796497688207, 99.99222748173443, 0.0
2551, 97.57767172556302, 105.0007909953057, 0.0
2552, 97.57866074719186, 102.4965092385193, 0.0
2553, 97.57149928930949, 89.99579624976397, 0.0
2554, 97.57486493957894, 94.99076810727209, 0.0
2555, 97.57318211444422, 92.4932821785182, 0.0
2556, 97.57450498184667, 84.99267040112247, 0.0
2557, 97.57300213557808, 87.49423332544299, 0.0
2558, 62.51832692533313, 9.916496216799281, 0.0
2559, 60.00809709311712, 7.433050848313535, 0.0
2560, 62.50381577912243, 4.96601507740432, 0.0
2561, 65.01404561133845, 7.449460445890066, 0.0
2562, 62.51107135222777, 7.441255647101801, 0.0
2563, 16.72506926913638, 67.69483723030737, 0.0
2564, 12.19989826342177, 145.1305317367897, 0.0
2565, 14.63995748749874, 147.6711489636886, 0.0
2566, 12.24492098036581, 150.1053897243023, 0.0
2567, 12.22240962189379, 147.617960730546, 0.0
2568, 97.57725735419982, 97.4914977945026, 0.0
2569, 2.435693849326387, 115.0229124478413, 0.0
2570, 2.443428023007721, 110.0361300514245, 0.0
2571, 2.439560936167054, 112.5295212496332, 0.0
2572, 2.455547071856237, 105.0464260262656, 0.0
2573, 2.449487547431979, 107.5412780388454, 0.0
2574, 2.464313067974505, 100.0386290377666, 0.0
2575, 2.459930069915371, 102.5425275320161, 0.0
2576, 75.8580220356018, 142.8507870390337, 0.0
2577, 73.48086848859097, 145.4942243234488, 0.0
2578, 73.43545417285009, 142.9776114149626, 0.0
2579, 2.457955809342636, 95.02348235223928, 0.0
2580, 2.44375244975885, 90.01729969287328, 0.0
2581, 2.450854129550743, 92.52039102255654, 0.0
2582, 2.46113443865857, 97.53105569500264, 0.0
2583, 78.27086979997149, 140.2725603615563, 0.0
2584, 80.6552403655078, 142.7027383769879, 0.0
2585, 78.25663120055479, 142.7767627080108, 0.0
2586, 97.57914558653238, 110.0104189121221, 0.0
2587, 97.5784086560477, 107.5056049537141, 0.0
2588, 97.578910929702, 115.0224872403201, 0.0
2589, 97.57902825811719, 112.5164530762214, 0.0
2590, 35.01756325636514, 192.5653262603593, 0.0
2591, 32.51242043914668, 195.0326269298959, 0.0
2592, 30.00906384132506, 192.5480384198409, 0.0
2593, 32.5133135488451, 192.5566823401001, 0.0
2594, 82.85706928752049, 155.1205874006498, 0.0
2595, 85.24196321520462, 157.5754590685363, 0.0
2596, 82.78045213866386, 160.1171168140298, 0.0
2597, 82.81876071309219, 157.6188521073398, 0.0
2598, 2.433980433812851, 85.02932658062593, 0.0
2599, 2.438866441785851, 87.52331313674941, 0.0
2600, 58.35089117954943, 60.12504071387028, 0.0
2601, 60.41339752121625, 57.97491389078671, 0.0
2602, 60.57096194775294, 60.44663619269836, 0.0
2603, 2.436166502480439, 120.0041587347295, 0.0
2604, 2.435930175903413, 117.5135355912848, 0.0
2605, 59.98887528045901, 53.22452887810717, 0.0
2606, 57.47134582851589, 50.69687418283826, 0.0
2607, 61.99519571778673, 51.04741426690843, 0.0
2608, 59.7332707731513, 50.87214422487335, 0.0
2609, 97.57018245044247, 79.99466874494465, 0.0
2610, 97.57234371614457, 82.49366957303339, 0.0
2611, 95.09697207510703, 57.5035159284521, 0.0
2612, 90.23558075261883, 57.45892080679552, 0.0
2613, 92.66627641386293, 57.4812183676238, 0.0
2614, 21.32867057716273, 122.9477085063597, 0.0
2615, 63.57350831575556, 155.7735076002843, 0.0
2616, 61.35715386736709, 153.4825354332937, 0.0
2617, 63.73886180979812, 153.366199540668, 0.0
2618, 79.1871203760636, 118.2418308293119, 0.0
2619, 90.07418096176852, 167.5277773850755, 0.0
2620, 92.56084522217601, 165.0205477869663, 0.0
2621, 95.03002559059857, 167.5086790518449, 0.0
2622, 92.54336133019109, 170.0159086499541, 0.0
2623, 92.55210327618354, 167.5182282184602, 0.0
2624, 2.427802649432105, 80.04050373859036, 0.0
2625, 2.430891541622478, 82.53491515960849, 0.0
2626, 66.5824171709946, 51.41195856002045, 0.0
2627, 64.48614378980062, 53.6345994183567, 0.0
2628, 64.28880644439067, 51.22968641346444, 0.0
2629, 97.56570198409099, 74.99663146695511, 0.0
2630, 97.56794221726673, 77.49565010594948, 0.0
2631, 34.8381718677694, 17.30140849910224, 0.0
2632, 37.34313263558793, 17.27657956490798, 0.0
2633, 4.93539265690991, 152.5024976966299, 0.0
2634, 9.838375184788267, 152.5390248223748, 0.0
2635, 7.399784157271693, 155.0074654444987, 0.0
2636, 7.386883920849089, 152.5207612595023, 0.0
2637, 38.40866852244689, 99.28791747591379, 0.0
2638, 37.42962959779284, 96.68826222638975, 0.0
2639, 39.40156341726089, 95.48692757785568, 0.0
2640, 38.81088839897651, 97.36867949257572, 0.0
2641, 95.03958296154515, 162.5105364943444, 0.0
2642, 92.56976905649455, 162.5214276673794, 0.0
2643, 39.41560278284291, 43.36284545136481, 0.0
2644, 41.52774127219179, 44.79087159453192, 0.0
2645, 24.46229008278981, 37.13467514413601, 0.0
2646, 22.00193467299935, 39.69953328577257, 0.0
2647, 19.64247957746607, 37.29126303180211, 0.0
2648, 22.10283498725654, 34.72640489016555, 0.0
2649, 22.05238483012795, 37.21296908796906, 0.0
2650, 29.09166850679469, 42.00975519042519, 0.0
2651, 26.64280461337648, 44.58875953937732, 0.0
2652, 24.34330754930672, 42.1199759630362, 0.0
2653, 26.79217144272493, 39.54097161408406, 0.0
2654, 26.71748802805071, 42.0648655767307, 0.0
2655, 2.435442267964573, 129.9838811895864, 0.0
2656, 2.438022658751861, 124.9871306986905, 0.0
2657, 2.436732463358217, 127.485505944139, 0.0
2658, 2.43709458061615, 122.4956447167097, 0.0
2659, 4.903641859449081, 142.5044499378737, 0.0
2660, 9.77076394002474, 142.5646012955326, 0.0
2661, 7.33720289973691, 142.5345256167032, 0.0
2662, 73.39389598959775, 150.4432807208242, 0.0
2663, 75.70963204311187, 152.821586037145, 0.0
2664, 73.31637986520172, 152.9175870488044, 0.0
2665, 26.48763968335624, 145.6279719219335, 0.0
2666, 26.45904254376475, 143.1082890302893, 0.0
2667, 97.56678095669969, 69.99247247316987, 0.0
2668, 97.56624147039534, 72.49455197006256, 0.0
2669, 2.425084122530688, 75.04054768987638, 0.0
2670, 2.426443385981396, 77.5405257142331, 0.0
2671, 97.57933099016438, 120.0358899519245, 0.0
2672, 97.57912095993319, 117.529188596122, 0.0
2673, 50.06128575626693, 182.7874016608616, 0.0
2674, 52.57653019099301, 180.3445874331045, 0.0
2675, 55.07936869998981, 182.7614330323607, 0.0
2676, 52.57032722812838, 182.7744173466112, 0.0
2677, 9.938166832824361, 27.46761050098213, 0.0
2678, 7.448693113203795, 29.97746043450759, 0.0
2679, 4.975469567176905, 27.48979507586012, 0.0
2680, 7.464943286797471, 24.97994514233466, 0.0
2681, 7.456818200000633, 27.47870278842112, 0.0
2682, 75.4367474698594, 162.7482679529519, 0.0
2683, 80.30554733356887, 162.6461838665476, 0.0
2684, 77.87114740171413, 162.6972259097498, 0.0
2685, 12.09357154034313, 130.0528899564638, 0.0
2686, 12.08452987598844, 127.5633650274229, 0.0
2687, 2.440453746840046, 134.9862824415191, 0.0
2688, 4.875896014804619, 132.4701636306258, 0.0
2689, 2.437948007402309, 132.4850818155516, 0.0
2690, 14.68103017847982, 47.37170503020447, 0.0
2691, 17.08052090060588, 47.32979745863675, 0.0
2692, 2.432050601390335, 70.03013557931438, 0.0
2693, 2.428567361960511, 72.53534163459571, 0.0
2694, 97.55945367147012, 64.99755277757248, 0.0
2695, 97.5631173140849, 67.49501262537117, 0.0
2696, 97.57355403899541, 125.0433438545923, 0.0
2697, 97.5764425145799, 122.5396169032582, 0.0
2698, 27.0568410928175, 165.369813082937, 0.0
2699, 24.53666756211511, 162.8069998429473, 0.0
2700, 26.87987949037239, 160.4281271271272, 0.0
2701, 26.96836029159494, 162.8989701050321, 0.0
2702, 2.455145435330243, 145.0071094832122, 0.0
2703, 2.448496424118838, 139.9973404550701, 0.0
2704, 2.451820929724541, 142.5022249691403, 0.0
2705, 2.444475085479442, 137.491811448294, 0.0
2706, 4.913088851397776, 52.4692435745161, 0.0
2707, 7.351435148104183, 52.44845016660081, 0.0
2708, 29.69216705055766, 64.51916355383014, 0.0
2709, 32.29462727165857, 63.10042225292491, 0.0
2710, 30.33564431412302, 62.45275157622035, 0.0
2711, 29.9294765003361, 12.42058465662221, 0.0
2712, 32.45649717138717, 9.937942048133062, 0.0
2713, 32.39492374096852, 14.87412287050876, 0.0
2714, 32.42571045617785, 12.40603245932091, 0.0
2715, 87.58979527801753, 170.0418538529062, 0.0
2716, 90.05164115449949, 172.522038166592, 0.0
2717, 87.55969587146501, 175.0324021688018, 0.0
2718, 87.57474557474127, 172.537128010854, 0.0
2719, 97.55110627212075, 60.00221913119984, 0.0
2720, 97.55527997179543, 62.499885954386, 0.0
2721, 97.54586580298628, 55.00129679698971, 0.0
2722, 97.54848603755352, 57.5017579640946, 0.0
2723, 40.03180613063826, 187.6555600544427, 0.0
2724, 42.53720521290338, 185.2110097445168, 0.0
2725, 45.04314698071256, 187.6670804821055, 0.0
2726, 42.53747655567541, 187.6613202682741, 0.0
2727, 67.55766820323468, 14.88348701025229, 0.0
2728, 65.04074178529967, 12.39536775474708, 0.0
2729, 67.52298809465185, 9.938754409613383, 0.0
2730, 70.03991451258688, 12.4268736651186, 0.0
2731, 67.54032814894327, 12.41112070993284, 0.0
2732, 61.05642887450206, 41.47019614632818, 0.0
2733, 63.2823832286202, 39.15640273519085, 0.0
2734, 63.48001375625991, 41.57857460467139, 0.0
2735, 97.56959256437864, 130.043473868892, 0.0
2736, 97.57157330168702, 127.5434088617421, 0.0
2737, 2.437450999108386, 65.01520582159802, 0.0
2738, 2.43475080024936, 67.5226707004567, 0.0
2739, 60.05496052920779, 187.6182744256878, 0.0
2740, 57.53688763339549, 190.0891679639845, 0.0
2741, 57.57092118878471, 185.1749222465128, 0.0
2742, 57.5539044110901, 187.6320451052486, 0.0
2743, 12.25553556964035, 47.39998229782366, 0.0
2744, 49.97105038494051, 12.33089520364402, 0.0
2745, 52.48598866784812, 12.33651525349356, 0.0
2746, 49.71728509322423, 162.4621836600604, 0.0
2747, 47.19294865520554, 165.5981327491505, 0.0
2748, 46.9917139515597, 162.8120607480409, 0.0
2749, 21.72214538064404, 54.84921265750469, 0.0
2750, 21.76467498789945, 52.30114188108483, 0.0
2751, 34.97079260470984, 7.449938641389116, 0.0
2752, 37.48823244757455, 4.967809462226973, 0.0
2753, 37.47227608366367, 7.44223428895965, 0.0
2754, 52.51487023403272, 195.0415163852359, 0.0
2755, 55.02560138053509, 192.5681496604922, 0.0
2756, 52.52707115989769, 192.5732684121604, 0.0
2757, 12.28830391749829, 155.0637431390033, 0.0
2758, 12.26661244893205, 152.5845664316528, 0.0
2759, 32.29760459706151, 19.7796416745776, 0.0
2760, 29.85435647026064, 17.35235604598413, 0.0
2761, 32.34626416901502, 17.32688227254318, 0.0
2762, 75.06282390748362, 17.41764334293654, 0.0
2763, 77.53552264933012, 14.95111921598602, 0.0
2764, 80.04348225958668, 17.44729681666237, 0.0
2765, 77.55315308353515, 17.43247007979945, 0.0
2766, 19.7684842064453, 167.6306028765959, 0.0
2767, 22.16760901724193, 165.2117571813229, 0.0
2768, 24.67099470451958, 167.7599397052289, 0.0
2769, 22.21973945548244, 167.6952712909124, 0.0
2770, 57.67820523186472, 29.35949793090566, 0.0
2771, 55.07415300696515, 26.90506103272074, 0.0
2772, 57.59039780238649, 24.53213035997213, 0.0
2773, 60.19445002728606, 26.98656725815705, 0.0
2774, 57.6343015171256, 26.94581414543889, 0.0
2775, 72.7707205136908, 29.70513973675146, 0.0
2776, 70.25126941011706, 27.20029035862668, 0.0
2777, 72.6715417033866, 24.79312644701245, 0.0
2778, 72.72113110853869, 27.24913309188195, 0.0
2779, 97.55514111259559, 135.0307383514165, 0.0
2780, 97.56236683848711, 132.5371061101536, 0.0
2781, 97.54858316664703, 140.015461387928, 0.0
2782, 97.55186213962132, 137.5230998696729, 0.0
2783, 24.70663229793062, 27.26305233323605, 0.0
2784, 22.20683226201131, 29.77951344340301, 0.0
2785, 19.80413434716893, 27.3574860846199, 0.0
2786, 22.30393438308824, 24.84102497445294, 0.0
2787, 22.25538332254977, 27.31026920892797, 0.0
2788, 67.56849094599593, 185.1011948745009, 0.0
2789, 67.63170299676054, 180.1717829303792, 0.0
2790, 67.60009697137824, 182.6364889024401, 0.0
2791, 90.11266503991136, 42.47535738637605, 0.0
2792, 85.21629266065293, 42.40019970428794, 0.0
2793, 87.66447885028214, 42.437778545332, 0.0
2794, 67.81437883273952, 29.58578402852281, 0.0
2795, 65.26272971297152, 27.09080211623189, 0.0
2796, 67.69962029034906, 24.70530844633577, 0.0
2797, 67.75699956154429, 27.14554623742929, 0.0
2798, 2.447454871995269, 59.99988089782516, 0.0
2799, 2.442452935551827, 62.50754335971018, 0.0
2800, 2.453228370844478, 54.98671205389267, 0.0
2801, 2.450341621419873, 57.49329647585824, 0.0
2802, 2.463961807889548, 150.0048867422405, 0.0
2803, 2.459553621609896, 147.5059981127273, 0.0
2804, 62.53208573673554, 190.0697822509412, 0.0
2805, 65.01738758524462, 192.5406234057178, 0.0
2806, 62.50924102720373, 195.0282118820872, 0.0
2807, 60.02393917869464, 192.5573707273106, 0.0
2808, 62.52066338196963, 192.5489970665142, 0.0
2809, 80.35958755117015, 42.28068637804178, 0.0
2810, 82.74582768283295, 39.84883801427873, 0.0
2811, 82.78794010591153, 42.34044304116486, 0.0
2812, 24.58687100087007, 32.18858395641118, 0.0
2813, 22.15483362463393, 32.25295916678428, 0.0
2814, 60.06394228609444, 17.26765697486888, 0.0
2815, 62.55024416832072, 14.8433529290321, 0.0
2816, 65.0890000096808, 17.31799722914661, 0.0
2817, 62.57647114788762, 17.29282710200774, 0.0
2818, 78.33038031634973, 137.7614335375171, 0.0
2819, 97.5349524928657, 50.00352792346375, 0.0
2820, 97.540409147926, 52.50241236022657, 0.0
2821, 32.33332240421596, 175.3397910424339, 0.0
2822, 34.89439429779083, 177.8315380347997, 0.0
2823, 32.43180191953935, 180.2383852304529, 0.0
2824, 32.38256216187766, 177.7890881364434, 0.0
2825, 29.74846443510864, 22.26166419252534, 0.0
2826, 27.2258857061675, 24.75661142135064, 0.0
2827, 24.8100146839989, 22.33720291353796, 0.0
2828, 27.33259341294004, 19.84225568471267, 0.0
2829, 27.27923955955377, 22.29943355303165, 0.0
2830, 55.61518302428141, 36.52074072249143, 0.0
2831, 53.0643191295883, 36.49187202360824, 0.0
2832, 31.66476060620531, 39.54445914335755, 0.0
2833, 33.94488419936857, 42.23192717309244, 0.0
2834, 31.37179209995795, 44.69722322016008, 0.0
2835, 31.51827635308163, 42.12084118175881, 0.0
2836, 65.84362712806941, 158.134801939495, 0.0
2837, 63.38580899664556, 158.1999203479258, 0.0
2838, 19.9268899411139, 17.435367732036, 0.0
2839, 17.42360039754793, 19.93588932927507, 0.0
2840, 14.95053943218664, 17.45747609255349, 0.0
2841, 17.45382897575261, 14.95695449531442, 0.0
2842, 17.43871468665027, 17.44642191229475, 0.0
2843, 75.01129707477742, 192.5198718780138, 0.0
2844, 72.50505501418513, 195.0138984179164, 0.0
2845, 70.01494214945667, 192.5296814652128, 0.0
2846, 72.51311961211704, 192.5247766716133, 0.0
2847, 65.05135286045869, 187.5892978952728, 0.0
2848, 62.55315669483325, 187.6037861604802, 0.0
2849, 71.14520440811351, 132.3033903840616, 0.0
2850, 73.66274367997694, 132.5233901367122, 0.0
2851, 80.05551609890475, 182.5480884671145, 0.0
2852, 82.55827077517175, 180.0447848870699, 0.0
2853, 85.0331124696651, 182.5255227172334, 0.0
2854, 82.53035779339808, 185.028826297278, 0.0
2855, 82.54431428428492, 182.5368055921739, 0.0
2856, 17.27974900050233, 165.0921308486101, 0.0
2857, 17.20788119386123, 160.1184474118451, 0.0
2858, 19.68177959463289, 162.6589082234011, 0.0
2859, 17.24381509718178, 162.6052891302276, 0.0
2860, 19.87446915580166, 22.39932812640676, 0.0
2861, 22.38054945671232, 19.89550606549179, 0.0
2862, 22.34224191990028, 22.36826551997236, 0.0
2863, 42.44013722148311, 175.5022080933679, 0.0
2864, 45.00117373855223, 177.9428390086428, 0.0
2865, 42.50896930472549, 180.3449428755708, 0.0
2866, 39.94793278765637, 177.9043119602958, 0.0
2867, 42.4745532631043, 177.9235754844693, 0.0
2868, 34.00221670997137, 158.2921885633041, 0.0
2869, 36.24999284969134, 155.9470847858517, 0.0
2870, 38.84835534901853, 158.4556784763908, 0.0
2871, 36.42528602949496, 158.3739335198475, 0.0
2872, 29.61084604645317, 27.15099376373352, 0.0
2873, 27.09159263821629, 29.65743467561892, 0.0
2874, 27.1587391721919, 27.20702304848479, 0.0
2875, 47.44233967593647, 14.78323204648513, 0.0
2876, 47.45822199146373, 12.33445135947257, 0.0
2877, 88.07480085515736, 117.7448486573018, 0.0
2878, 7.458036536001311, 169.9985157432764, 0.0
2879, 4.971580488472753, 167.4905540816564, 0.0
2880, 7.448672585008953, 167.494571355464, 0.0
2881, 77.88847683806614, 39.71479938763885, 0.0
2882, 75.4055114017927, 37.16462548425446, 0.0
2883, 80.26917434205015, 37.30427922248533, 0.0
2884, 77.83734287192141, 37.2344523533699, 0.0
2885, 70.15356795622648, 22.2962509204098, 0.0
2886, 72.59776069609819, 19.86755296870387, 0.0
2887, 72.6346511997424, 22.33033970785816, 0.0
2888, 14.88202828848565, 27.42578696844062, 0.0
2889, 17.37444069614422, 24.90677198472396, 0.0
2890, 17.34308131782729, 27.39163652653026, 0.0
2891, 24.88933293652769, 17.39880718439533, 0.0
2892, 27.41109599384829, 14.90890754566679, 0.0
2893, 27.37184470339416, 17.37558161518972, 0.0
2894, 47.55293239346769, 185.2170876718773, 0.0
2895, 47.54684751938326, 187.6652661982494, 0.0
2896, 78.22964475212996, 52.11696385513699, 0.0
2897, 26.94262677316742, 34.57189773106676, 0.0
2898, 29.27250813310254, 36.9781942010148, 0.0
2899, 26.86739910794618, 37.05643467257541, 0.0
2900, 87.57051322350483, 29.94619746304764, 0.0
2901, 90.05847318923605, 32.46842610737411, 0.0
2902, 87.58711420784027, 32.44220334326913, 0.0
2903, 12.44567357134295, 175.0258487845275, 0.0
2904, 9.952104854748459, 172.5059772219216, 0.0
2905, 12.42897535716459, 172.5230726493236, 0.0
2906, 67.80569824157334, 170.3443677949478, 0.0
2907, 67.87596317905818, 167.8847124312082, 0.0
2908, 47.39380889265841, 170.6646763595356, 0.0
2909, 49.99897731711404, 173.1032032004365, 0.0
2910, 47.50493528491658, 175.5306421476694, 0.0
2911, 44.89976686046096, 173.0921153067684, 0.0
2912, 47.4493720887875, 173.0976592536024, 0.0
2913, 31.60563177622963, 135.529890010918, 0.0
2914, 34.20790460769227, 138.4408361882923, 0.0
2915, 31.48892943103071, 138.2614806371472, 0.0
2916, 14.78544518653591, 37.398870320467, 0.0
2917, 17.21396238200099, 37.34506667613456, 0.0
2918, 67.70929923574766, 175.2575382092952, 0.0
2919, 67.67050111625412, 177.7146605698372, 0.0
2920, 95.06052678961055, 47.50622809772847, 0.0
2921, 92.58948606876245, 44.99223394608006, 0.0
2922, 92.60563933300571, 47.4908843160879, 0.0
2923, 22.43567342092927, 14.93866885093953, 0.0
2924, 22.4081114388208, 17.41708745821566, 0.0
2925, 19.58696896421657, 157.7070533523961, 0.0
2926, 14.75014885250676, 157.582803745629, 0.0
2927, 17.16855890836166, 157.6449285490126, 0.0
2928, 85.44281166489878, 57.33860064254109, 0.0
2929, 87.8391962087588, 57.39876072466831, 0.0
2930, 4.965728111311259, 32.48875840491672, 0.0
2931, 7.439815537138399, 32.47614169334836, 0.0
2932, 12.42804913142593, 24.95243695754456, 0.0
2933, 12.41009756065501, 27.44669873471137, 0.0
2934, 2.471430849020361, 154.9976109547269, 0.0
2935, 2.467696328454955, 152.5012488484823, 0.0
2936, 37.51747183455746, 195.0413810866939, 0.0
2937, 37.52710374641784, 190.1014164457109, 0.0
2938, 37.52228779048765, 192.5713987662024, 0.0
2939, 77.9493150721793, 42.19958046344385, 0.0
2940, 97.54376180129793, 145.0054497053036, 0.0
2941, 97.54617248397248, 142.5104555466152, 0.0
2942, 29.59693197508705, 167.9151452598785, 0.0
2943, 27.13396333980332, 167.8375424825537, 0.0
2944, 57.58887923768377, 182.7364954277203, 0.0
2945, 70.0838952019687, 17.3725275455267, 0.0
2946, 67.61522700841482, 19.80703776442101, 0.0
2947, 67.58644760582474, 17.34526238733665, 0.0
2948, 72.89396189583513, 34.61779894109144, 0.0
2949, 70.53367258503607, 36.99869700451399, 0.0
2950, 72.96959199341438, 37.08166124438423, 0.0
2951, 57.49944151538539, 4.95752760224301, 0.0
2952, 57.50264222699481, 7.427150125429765, 0.0
2953, 90.03234238563869, 177.5164680462931, 0.0
2954, 92.5289894702729, 175.0123967443915, 0.0
2955, 95.01261582719448, 177.504484759807, 0.0
2956, 92.51596874256026, 180.0085560617086, 0.0
2957, 92.52247910641658, 177.51047640305, 0.0
2958, 29.94996644990572, 182.6653908893742, 0.0
2959, 27.47634415814821, 185.1064892920513, 0.0
2960, 24.94547193894575, 182.6100369859787, 0.0
2961, 27.44771919442573, 182.6377139376764, 0.0
2962, 82.57994795108868, 24.9188965325039, 0.0
2963, 85.0767720911567, 27.43309054568766, 0.0
2964, 82.60437920609617, 27.40274400016919, 0.0
2965, 16.99332554593257, 145.2610589331642, 0.0
2966, 17.02855482755015, 147.7406489805003, 0.0
2967, 82.7465272576518, 162.6103787546903, 0.0
2968, 69.04635170855752, 54.01124907736619, 0.0
2969, 71.464826153472, 56.62547298177131, 0.0
2970, 69.34082970124771, 58.88361973564771, 0.0
2971, 66.92235525633325, 56.26939583124259, 0.0
2972, 69.19359070490262, 56.44743440650694, 0.0
2973, 14.92357193789049, 22.44333318759227, 0.0
2974, 17.39902054684608, 22.42133065699952, 0.0
2975, 19.6033951810432, 77.47509809389179, 0.0
2976, 22.26368789668383, 78.27645994043937, 0.0
2977, 21.36345968621716, 76.39557899916679, 0.0
2978, 70.37639549496885, 32.09579557020673, 0.0
2979, 72.83234120476297, 32.16146933892145, 0.0
2980, 22.42954672222553, 180.1043679523416, 0.0
2981, 19.91057080564443, 177.5875307841125, 0.0
2982, 22.39522299532754, 177.6243801062519, 0.0
2983, 17.45061189697315, 180.0549335357252, 0.0
2984, 14.94423979498657, 177.5387126383398, 0.0
2985, 17.4274053003155, 177.5631217112261, 0.0
2986, 2.459860480553298, 49.98253152099649, 0.0
2987, 2.456544425698888, 52.48462178744488, 0.0
2988, 67.65742364938194, 22.25617310537839, 0.0
2989, 72.52050205306293, 9.959247221843576, 0.0
2990, 70.01475765604151, 7.4647046667264, 0.0
2991, 72.50552198968504, 4.984125573498046, 0.0
2992, 75.01126638670644, 7.478668128615221, 0.0
2993, 72.51301202137398, 7.47168639767081, 0.0
2994, 19.95730625678513, 182.5622730881845, 0.0
2995, 22.45138909786544, 182.5861550370816, 0.0
2996, 32.16715915175007, 24.66068822209196, 0.0
2997, 32.2323818744058, 22.22016494833478, 0.0
2998, 62.78295859184836, 29.46413261332558, 0.0
2999, 62.72858987012879, 27.03868468719447, 0.0
3000, 87.5440413495896, 24.95887897167466, 0.0
3001, 90.03778248193774, 27.47198588903464, 0.0
3002, 87.55727728654722, 27.45253821736115, 0.0
3003, 24.94443436959724, 12.4441739349759, 0.0
3004, 27.46281487608505, 9.955851045931325, 0.0
3005, 27.43695543496667, 12.43237929579906, 0.0
3006, 29.97403233903117, 7.465020604379298, 0.0
3007, 32.48832777235383, 4.977017197635352, 0.0
3008, 32.4724124718705, 7.457479622884207, 0.0
3009, 9.869954984009045, 157.50902798521, 0.0
3010, 12.3100519182579, 157.5459158654195, 0.0
3011, 80.10031429910067, 177.5728573104446, 0.0
3012, 77.58893392539225, 180.0776406793371, 0.0
3013, 77.62072620963043, 177.5963584686, 0.0
3014, 72.54895841335413, 14.92261791975937, 0.0
3015, 72.57335955472617, 17.39508544423162, 0.0
3016, 92.5318651336481, 29.9804743254532, 0.0
3017, 95.0222625444606, 32.49293985175602, 0.0
3018, 92.54036786684833, 32.48068297956506, 0.0
3019, 25.00080982930425, 192.531836241637, 0.0
3020, 22.50232064181603, 195.0138514412394, 0.0
3021, 19.99801840619548, 192.5180707557811, 0.0
3022, 22.49941411774986, 192.524953498709, 0.0
3023, 9.958796896705957, 22.47243991811035, 0.0
3024, 12.45431970317052, 19.96333614815806, 0.0
3025, 12.44118441729822, 22.45788655285131, 0.0
3026, 4.947150224471109, 157.4921004735041, 0.0
3027, 7.408552604240077, 157.5005642293571, 0.0
3028, 97.53836966831471, 150.0033261065726, 0.0
3029, 97.54106573480632, 147.5043879059382, 0.0
3030, 44.99549570986559, 2.477715295242597, 0.0
3031, 49.99658283253466, 2.476578014131127, 0.0
3032, 47.49603927120012, 2.477146654686862, 0.0
3033, 62.97885096796275, 34.30955307626694, 0.0
3034, 65.61775037180269, 36.81683724545148, 0.0
3035, 60.64348382478028, 36.64911856600632, 0.0
3036, 63.13061709829148, 36.7329779057289, 0.0
3037, 65.25228693092583, 172.8539543378272, 0.0
3038, 67.7574987386605, 172.8009530021215, 0.0
3039, 32.18593704805497, 170.4434305655001, 0.0
3040, 32.25962972613546, 172.891610803967, 0.0
3041, 45.03848511224536, 182.7899920447366, 0.0
3042, 47.54683847504461, 180.3603060337209, 0.0
3043, 47.54988543425615, 182.7886968527991, 0.0
3044, 80.4910684955106, 152.6676130549855, 0.0
3045, 78.10035026931124, 152.7445995460652, 0.0
3046, 87.53306642361073, 180.0219047939873, 0.0
3047, 90.01698450078439, 182.5110034126511, 0.0
3048, 87.51703054683875, 185.0146213358972, 0.0
3049, 87.52504848522474, 182.5182630649423, 0.0
3050, 85.06041990943707, 177.537838916496, 0.0
3051, 82.58036710426887, 177.5553481134704, 0.0
3052, 50.00818860906836, 197.5219589889215, 0.0
3053, 45.00951835281208, 197.5226347779804, 0.0
3054, 47.5088534809402, 197.5222968834509, 0.0
3055, 34.56291402915545, 27.03258372244788, 0.0
3056, 32.00660092385856, 29.52288926408944, 0.0
3057, 32.08688003780431, 27.0917887430907, 0.0
3058, 24.39343734061909, 157.8600608217711, 0.0
3059, 29.18715211962862, 158.0608672937693, 0.0
3060, 26.79029473012386, 157.9604640577702, 0.0
3061, 82.54493660821086, 19.9484472058943, 0.0
3062, 85.04521809586882, 22.45397731261238, 0.0
3063, 82.56244227964976, 22.4336718691991, 0.0
3064, 67.96847270237106, 34.46324381381892, 0.0
3065, 68.07571147841938, 36.90776712498274, 0.0
3066, 17.47982897278591, 185.036982067719, 0.0
3067, 14.97313461297392, 182.5296425152598, 0.0
3068, 17.46522043487953, 182.5459578017221, 0.0
3069, 19.32450908903625, 87.8522977064678, 0.0
3070, 16.94872391025179, 87.77634158137457, 0.0
3071, 2.469463676408373, 44.98632347346857, 0.0
3072, 2.464662078480836, 47.48442749723333, 0.0
3073, 2.474777403276, 39.99116673451085, 0.0
3074, 2.472120539842186, 42.48874510399128, 0.0
3075, 87.54638114753789, 177.5271534813946, 0.0
3076, 77.5441823139254, 185.0471094783426, 0.0
3077, 77.56655811965882, 182.5623750788398, 0.0
3078, 12.3363946018529, 37.42780871380673, 0.0
3079, 47.39224161678125, 19.64097551757107, 0.0
3080, 47.41729064635885, 17.2121037820281, 0.0
3081, 19.96136672163138, 12.46192976777046, 0.0
3082, 22.47012767029934, 9.96743485180683, 0.0
3083, 22.45290054561431, 12.45305185137318, 0.0
3084, 2.475719375450748, 159.9944895190793, 0.0
3085, 2.473575112235554, 157.4960502369024, 0.0
3086, 12.47132762552308, 180.0238606570766, 0.0
3087, 9.97276140187946, 177.5109968032643, 0.0
3088, 12.45850059843301, 177.524854720802, 0.0
3089, 75.02954595383017, 12.45499147648435, 0.0
3090, 72.5347302332085, 12.44093257080147, 0.0
3091, 97.52836499465542, 155.0046952779241, 0.0
3092, 97.53336733148507, 152.5040106922485, 0.0
3093, 65.40645604014173, 31.953232272135, 0.0
3094, 67.89142576755529, 32.02451392117086, 0.0
3095, 52.56938207980712, 175.5122307206968, 0.0
3096, 52.525994040548, 170.6444410629255, 0.0
3097, 52.54768806017756, 173.0783358918112, 0.0
3098, 87.68469241209496, 157.5528694059589, 0.0
3099, 27.50327585476139, 190.0570920820944, 0.0
3100, 27.4898100064548, 187.5817906870728, 0.0
3101, 97.52035177263745, 39.99864913708555, 0.0
3102, 97.52557429674485, 45.00270017405406, 0.0
3103, 95.04592606938229, 42.50134931132432, 0.0
3104, 97.52296303469114, 42.50067465557011, 0.0
3105, 97.53026339480527, 47.50311404875896, 0.0
3106, 78.52464317789934, 61.95674227168706, 0.0
3107, 85.42415205519303, 142.6016575306283, 0.0
3108, 83.03969621035041, 142.6521979538081, 0.0
3109, 77.51469292598699, 9.975713642970172, 0.0
3110, 80.02066962148695, 12.47184138247184, 0.0
3111, 77.52510778765856, 12.46341642947809, 0.0
3112, 34.40213788115828, 31.92291372607349, 0.0
3113, 31.84288536781337, 34.44077291225855, 0.0
3114, 29.44734841051364, 32.04074845027451, 0.0
3115, 31.92474314583597, 31.981831088174, 0.0
3116, 95.0207096459645, 172.5062672277536, 0.0
3117, 92.536175400232, 172.5141526971728, 0.0
3118, 54.99854839570331, 2.476621535099816, 0.0
3119, 52.49756561411916, 2.476599774615472, 0.0
3120, 55.0066816252225, 197.5195573963144, 0.0
3121, 52.50743511714542, 197.5207581926179, 0.0
3122, 42.52308725881444, 182.7779763100438, 0.0
3123, 39.61430178284735, 26.93553535875759, 0.0
3124, 42.21538834345017, 24.49629924271698, 0.0
3125, 42.173752909759, 26.90165449455431, 0.0
3126, 39.9940657413226, 2.481126881201763, 0.0
3127, 42.49478072559295, 2.47942108822218, 0.0
3128, 90.00774581576282, 187.5068404507798, 0.0
3129, 87.50645285360784, 190.0077152761614, 0.0
3130, 85.01573758468378, 187.5154961612788, 0.0
3131, 87.5117417002233, 187.5111683060293, 0.0
3132, 57.51265292583424, 195.0363524238183, 0.0
3133, 57.52477027961486, 192.5627601939013, 0.0
3134, 40.00967474126966, 197.5228570297284, 0.0
3135, 42.5095965470416, 197.5227459038544, 0.0
3136, 67.50596025118222, 195.0196042250107, 0.0
3137, 67.52636948351909, 190.0507006459198, 0.0
3138, 67.51616486735065, 192.5351524354653, 0.0
3139, 27.50659781586792, 195.0227825793835, 0.0
3140, 27.50493683531466, 192.5399373307389, 0.0
3141, 57.55317437859556, 19.68622341728601, 0.0
3142, 57.57178609049103, 22.10917688862907, 0.0
3143, 67.5474302147575, 187.5759477602104, 0.0
3144, 77.50423277053983, 4.990649111922974, 0.0
3145, 80.00765930982038, 7.487694626277925, 0.0
3146, 77.50946284826341, 7.483181377446573, 0.0
3147, 67.5058151727281, 4.975410703003083, 0.0
3148, 67.51440163368997, 7.457082556308233, 0.0
3149, 92.51985671218247, 24.98309654235482, 0.0
3150, 95.01393936389282, 27.49158497877338, 0.0
3151, 92.52586092291529, 27.48178543390401, 0.0
3152, 2.483176598254408, 164.9934232853194, 0.0
3153, 2.479447986852578, 162.4939564021993, 0.0
3154, 9.713347145120458, 132.5133972615459, 0.0
3155, 12.10402219753649, 132.5753917916949, 0.0
3156, 87.52373535236482, 19.97403911150941, 0.0
3157, 90.02255860608561, 22.47894077057169, 0.0
3158, 87.53388835097722, 22.46645904159204, 0.0
3159, 97.52231714837573, 160.0056681319774, 0.0
3160, 97.51726581316942, 165.0048683621619, 0.0
3161, 97.51979148077258, 162.5052682470693, 0.0
3162, 97.52534107151558, 157.5051817049507, 0.0
3163, 59.34441371003278, 151.189553946145, 0.0
3164, 59.07684123165118, 153.478904912924, 0.0
3165, 28.52688478406148, 132.9151920664334, 0.0
3166, 26.16107772219492, 132.8918828858183, 0.0
3167, 62.72386259456717, 172.9060293182015, 0.0
3168, 68.28802491826035, 158.0395199065545, 0.0
3169, 97.51328868468845, 34.99742737960955, 0.0
3170, 97.51682022866294, 37.49803825834736, 0.0
3171, 36.13659085180086, 45.48799945241932, 0.0
3172, 35.59353100125573, 50.71576168339526, 0.0
3173, 33.5714297515822, 47.49885743301228, 0.0
3174, 35.8650609265283, 48.1018805679073, 0.0
3175, 37.01755904376955, 29.40019515143819, 0.0
3176, 37.0886079060014, 26.98405954060274, 0.0
3177, 87.60670043827645, 167.5462334767305, 0.0
3178, 9.967529911354614, 17.47243555245419, 0.0
3179, 12.46374964037074, 14.96657549684962, 0.0
3180, 12.45903467177063, 17.46495582250384, 0.0
3181, 82.51052048924643, 190.01411599394, 0.0
3182, 80.02514069796075, 187.5274461299392, 0.0
3183, 82.52043914132227, 187.521471145609, 0.0
3184, 14.96512346086328, 12.46655087458329, 0.0
3185, 17.47266120674205, 9.971526147039324, 0.0
3186, 17.46324509124733, 12.46424032117687, 0.0
3187, 37.22389613041061, 40.10677317203793, 0.0
3188, 34.23513784091614, 37.00703785460131, 0.0
3189, 36.95103873717466, 34.35772050718441, 0.0
3190, 37.08746743379263, 37.23224683961117, 0.0
3191, 71.05479174332825, 148.0839739842513, 0.0
3192, 68.67645258705103, 148.2282203066291, 0.0
3193, 12.48824271178659, 185.0170598002969, 0.0
3194, 9.986435724335738, 182.5112779421137, 0.0
3195, 12.47978516865483, 182.5204602286867, 0.0
3196, 60.00597130086987, 197.5167950275039, 0.0
3197, 57.50632646304643, 197.5181762119091, 0.0
3198, 7.476257074443145, 175.0046673207908, 0.0
3199, 4.982188755695997, 172.4972058421456, 0.0
3200, 7.467146805222228, 172.5015915320336, 0.0
3201, 82.52264941990711, 14.97109021500448, 0.0
3202, 85.02410376853129, 17.47224060423642, 0.0
3203, 82.53379301405899, 17.4597687104494, 0.0
3204, 4.981658814611164, 22.48875570383517, 0.0
3205, 7.47551242451965, 19.98125047961086, 0.0
3206, 7.47022785565856, 22.48059781097276, 0.0
3207, 52.49166071055849, 165.581077451396, 0.0
3208, 52.54024592140951, 162.7603005069745, 0.0
3209, 87.51242667997033, 14.98501029796918, 0.0
3210, 90.01205826380387, 17.48680880524217, 0.0
3211, 87.51808101616759, 17.47952470473929, 0.0
3212, 60.0008931194935, 2.480906067143194, 0.0
3213, 57.4997207575973, 2.478763801121505, 0.0
3214, 62.53428554682693, 12.37992457291569, 0.0
3215, 34.99416670609608, 2.48668258102521, 0.0
3216, 37.49411622370992, 2.483904731113487, 0.0
3217, 31.5946844148, 158.1765279285367, 0.0
3218, 85.64239619154453, 127.7843904431252, 0.0
3219, 87.99676038651164, 127.7371213988112, 0.0
3220, 14.5811580307792, 142.6919403744855, 0.0
3221, 16.95809685742673, 142.763853452475, 0.0
3222, 77.51506431982969, 190.0229264265, 0.0
3223, 77.52962331687755, 187.5350179524214, 0.0
3224, 87.82742988736321, 142.5750178830501, 0.0
3225, 35.00779709354123, 197.5185240569655, 0.0
3226, 37.50873591740545, 197.520690543347, 0.0
3227, 82.50927542298334, 9.98644753899386, 0.0
3228, 85.0112552214035, 12.4856963715265, 0.0
3229, 82.51596242144522, 12.47876887699917, 0.0
3230, 26.52625080580995, 148.0997181881612, 0.0
3231, 2.488403890218345, 169.9971307965679, 0.0
3232, 2.485790244236377, 167.4952770409432, 0.0
3233, 2.479831526394578, 34.99362313019844, 0.0
3234, 2.477304464835289, 37.49239493235399, 0.0
3235, 97.50897385977217, 29.99551247201365, 0.0
3236, 97.5111312722303, 32.49646992581167, 0.0
3237, 65.00326972658726, 197.5114168545833, 0.0
3238, 62.5046205137292, 197.5141059410436, 0.0
3239, 14.98995259071113, 187.5189204631004, 0.0
3240, 17.49552864486387, 190.0196330977543, 0.0
3241, 17.48767880882489, 187.5283075827367, 0.0
3242, 80.00752357007718, 192.5119943042824, 0.0
3243, 77.5037563250249, 195.0089397557962, 0.0
3244, 77.5094103224273, 192.5159330911481, 0.0
3245, 69.49335577727896, 61.37418776292532, 0.0
3246, 9.968449768684026, 12.46981119496257, 0.0
3247, 12.46982358917657, 9.96978657269623, 0.0
3248, 12.46678661477365, 12.46818103477293, 0.0
3249, 92.510611647033, 19.98900080441728, 0.0
3250, 95.00790975312987, 22.49315657620041, 0.0
3251, 92.51523417960775, 22.48604867338605, 0.0
3252, 44.69130950703504, 168.1517995227706, 0.0
3253, 42.28700334625628, 170.641225565606, 0.0
3254, 42.1441898856628, 168.1677584600754, 0.0
3255, 26.03837393890174, 95.81425439148381, 0.0
3256, 24.3002438489485, 92.25865224921463, 0.0
3257, 26.74552905794856, 93.29702525345863, 0.0
3258, 95.00663547522407, 182.5032236681419, 0.0
3259, 92.5076512334482, 185.0056710190844, 0.0
3260, 92.51180998800423, 182.5071135403965, 0.0
3261, 65.0029226594369, 2.485109010261127, 0.0
3262, 62.50190788946523, 2.48300753870216, 0.0
3263, 36.02257763462235, 151.1860239033013, 0.0
3264, 36.13628524215684, 153.5665543445765, 0.0
3265, 19.98171510197395, 7.479624906469031, 0.0
3266, 22.48864405575632, 4.985550748348528, 0.0
3267, 24.97705662408171, 7.473360693686327, 0.0
3268, 22.47938586302784, 7.476492800077679, 0.0
3269, 68.89649898320826, 51.57620858393786, 0.0
3270, 85.76386713783361, 107.7605340403841, 0.0
3271, 88.08564632431076, 107.6645129084005, 0.0
3272, 87.50496356435023, 9.993358429640445, 0.0
3273, 90.00613502291705, 12.49267235608312, 0.0
3274, 87.50869512216028, 12.48918436380481, 0.0
3275, 12.17596098540197, 142.628270835009, 0.0
3276, 30.00462334583639, 197.5141028729304, 0.0
3277, 32.506210219688, 197.516313464948, 0.0
3278, 97.51275977742915, 170.0038106895053, 0.0
3279, 97.51501279529928, 167.5043395258346, 0.0
3280, 82.89697757603983, 152.6179296662261, 0.0
3281, 27.48827408702783, 4.9825302521343, 0.0
3282, 27.47554448155644, 7.469190649032813, 0.0
3283, 4.980613221053252, 17.48327691267494, 0.0
3284, 7.472630707888216, 14.97446198551826, 0.0
3285, 7.474071566203934, 17.47785623256457, 0.0
3286, 72.9867186260634, 162.8152862935262, 0.0
3287, 7.486920490844856, 180.0079243581271, 0.0
3288, 4.990416163408542, 177.5015948756536, 0.0
3289, 7.481588782644001, 177.506295839459, 0.0
3290, 85.00539643596014, 192.5072663499709, 0.0
3291, 82.50239951679087, 195.0051446603133, 0.0
3292, 82.50646000301865, 192.5096303271266, 0.0
3293, 97.50496550412066, 24.9960725066525, 0.0
3294, 97.5069696819464, 27.49579248933323, 0.0
3295, 70.00269052482588, 197.5081873704274, 0.0
3296, 67.50298012570624, 197.5098021125054, 0.0
3297, 2.485896584916682, 29.99513527494921, 0.0
3298, 2.48286405565563, 32.49437920257256, 0.0
3299, 38.42030549668213, 149.1112687246295, 0.0
3300, 36.04639302110367, 148.8579620011561, 0.0
3301, 14.975173356417, 7.47446046523736, 0.0
3302, 17.4842272516489, 4.982559224667068, 0.0
3303, 17.47844422919548, 7.477042685853196, 0.0
3304, 82.50249013509654, 4.995344861109477, 0.0
3305, 85.00410624825948, 7.494097773825412, 0.0
3306, 82.50588277903995, 7.490896200051667, 0.0
3307, 29.99416106611299, 2.490334616610141, 0.0
3308, 32.49416388610462, 2.488508598817676, 0.0
3309, 24.99411302079006, 2.492195635524158, 0.0
3310, 27.49413704345145, 2.49126512606715, 0.0
3311, 32.08140132947551, 167.9905166063074, 0.0
3312, 95.0027650377707, 187.5019535503981, 0.0
3313, 92.5028596200853, 190.0031229820936, 0.0
3314, 92.50525542676675, 187.504397000589, 0.0
3315, 75.00236448955467, 197.505711047489, 0.0
3316, 72.50252750718897, 197.5069492089582, 0.0
3317, 7.494946565116073, 185.0061933959185, 0.0
3318, 4.995431331625189, 182.5028398119318, 0.0
3319, 7.490933527980465, 182.5070588770228, 0.0
3320, 37.52049635976281, 187.6440221027742, 0.0
3321, 90.0026508491177, 192.5033222661931, 0.0
3322, 87.50159443146998, 195.0028733400026, 0.0
3323, 87.50402364253893, 192.505294308082, 0.0
3324, 2.489572982260223, 24.99465980110631, 0.0
3325, 2.487734783588452, 27.49489753802712, 0.0
3326, 12.49687842844284, 190.0092996596198, 0.0
3327, 9.995168549518299, 187.5074389968162, 0.0
3328, 12.49256057011472, 187.5131797299584, 0.0
3329, 4.973019138081318, 12.4738156887861, 0.0
3330, 7.468838198877128, 9.9691648982304, 0.0
3331, 7.470734453382672, 12.47181344187433, 0.0
3332, 62.42090032900721, 55.83283415024052, 0.0
3333, 57.98137247266804, 55.36660861865336, 0.0
3334, 60.20113640083763, 55.59972138444694, 0.0
3335, 92.50573810894011, 14.9933664173301, 0.0
3336, 95.00429149216924, 17.49555841650521, 0.0
3337, 92.50817487798656, 17.49118361087369, 0.0
3338, 9.9700192083938, 7.470078986584076, 0.0
3339, 12.47536897563423, 4.974752879125207, 0.0
3340, 12.4725962824054, 7.472269725910719, 0.0
3341, 47.43476890282644, 31.69045987085232, 0.0
3342, 57.53804384955062, 17.24803373154845, 0.0
3343, 80.0013918356301, 197.5032287083072, 0.0
3344, 77.50187816259259, 197.5044698778981, 0.0
3345, 19.99453103486741, 2.49335511282437, 0.0
3346, 22.49432202782882, 2.492775374174264, 0.0
3347, 92.50229656126778, 9.997117955580256, 0.0
3348, 95.00189964729083, 12.49781201682724, 0.0
3349, 92.50401733510395, 12.49524218645518, 0.0
3350, 70.00289251311347, 2.490301692741957, 0.0
3351, 67.50290758627503, 2.487705351501542, 0.0
3352, 17.50030136637438, 195.007482721503, 0.0
3353, 14.99781160504278, 192.5090450634763, 0.0
3354, 17.49791500561913, 192.5135579096287, 0.0
3355, 49.8954480408289, 168.1110095859155, 0.0
3356, 47.29337877393198, 168.131404554343, 0.0
3357, 17.31339053005972, 167.5861346921987, 0.0
3358, 32.46103391127121, 182.6937050148863, 0.0
3359, 87.50158022290472, 4.997557321238463, 0.0
3360, 90.00243753899548, 7.496817977053495, 0.0
3361, 87.50327189362747, 7.495457875439453, 0.0
3362, 7.475556436230999, 4.975432670711986, 0.0
3363, 4.974375426714325, 7.47451858235831, 0.0
3364, 7.472197317554063, 7.472298784471192, 0.0
3365, 92.57929555464685, 42.48835334885019, 0.0
3366, 2.492085832350941, 19.99409590288873, 0.0
3367, 2.490829407305582, 22.49437785199787, 0.0
3368, 2.488527388702311, 14.98918100991056, 0.0
3369, 2.490306610526626, 17.49163845639968, 0.0
3370, 75.00262947642116, 2.493823880756089, 0.0
3371, 72.50276099476878, 2.492062786749023, 0.0
3372, 85.00100768128512, 197.5019159520061, 0.0
3373, 82.50119975845831, 197.5025723301566, 0.0
3374, 2.484491749379006, 9.984634678964358, 0.0
3375, 2.486509569040659, 12.48690784443686, 0.0
3376, 83.27906809210593, 82.27240324016984, 0.0
3377, 80.00160329399561, 2.496825231166885, 0.0
3378, 77.50211638520773, 2.495324555961487, 0.0
3379, 97.50794986853535, 175.002456538098, 0.0
3380, 97.51035482298225, 172.5031336138011, 0.0
3381, 95.00107818273221, 192.5011364298884, 0.0
3382, 92.50086941176463, 195.0013357139879, 0.0
3383, 92.50186451592498, 192.5022293480408, 0.0
3384, 90.00058675027368, 197.5009573879965, 0.0
3385, 87.50079721577839, 197.5014366700013, 0.0
3386, 92.50090856881289, 4.998759970212181, 0.0
3387, 95.00076759108518, 7.499059948738942, 0.0
3388, 92.50160256504034, 7.497938962896218, 0.0
3389, 97.50466595865913, 180.0020282215859, 0.0
3390, 97.50630791359724, 177.5022423798415, 0.0
3391, 14.98969621670859, 2.489204111842699, 0.0
3392, 17.492113625788, 2.491279612333534, 0.0
3393, 9.98567275887647, 2.485548767282508, 0.0
3394, 12.48768448779358, 2.487376439562603, 0.0
3395, 97.5029442490092, 19.99708406946219, 0.0
3396, 97.50395487656493, 22.49657828805724, 0.0
3397, 97.50196951656494, 185.0011954464602, 0.0
3398, 97.50331773761204, 182.5016118340225, 0.0
3399, 97.50079552120576, 190.0007581038696, 0.0
3400, 97.50138251888535, 187.5009767751646, 0.0
3401, 21.95238552745052, 42.19961476680207, 0.0
3402, 2.489883677335319, 4.989883903447241, 0.0
3403, 2.487187713357163, 7.487259291205018, 0.0
3404, 95.00028266154422, 197.5003783259914, 0.0
3405, 92.50043470590896, 197.500667856994, 0.0
3406, 97.50134724316004, 14.99847434697472, 0.0
3407, 97.50214574608462, 17.49777920821842, 0.0
3408, 4.989883677325197, 2.489883903429478, 0.0
3409, 7.487778218100656, 2.487716335355993, 0.0
3410, 22.05083813950607, 160.2541508850256, 0.0
3411, 22.109223578374, 162.7329540331742, 0.0
3412, 97.50028266152646, 195.0003783259777, 0.0
3413, 97.50053909136611, 192.5005682149231, 0.0
3414, 97.50014133077211, 197.5001891629893, 0.0
3415, 85.00088684100521, 2.498519629942592, 0.0
3416, 82.5012450675014, 2.497672430554739, 0.0
3417, 2.494941838662799, 2.494941951722825, 0.0
3418, 90.00069338183114, 2.499037691295871, 0.0
3419, 87.50079011141868, 2.498778660619231, 0.0
3420, 97.50055240413079, 9.999337669802387, 0.0
3421, 97.50094982364541, 12.49890600838805, 0.0
3422, 95.00021518694072, 2.49972227891631, 0.0
3423, 92.50045428438577, 2.49937998510609, 0.0
3424, 97.50021518695439, 4.999722278906521, 0.0
3425, 97.50038379554259, 7.499529974354573, 0.0
3426, 97.50010759346895, 2.49986113945325, 0.0
3427, 7.498551487323954, 190.0035210174997, 0.0
3428, 4.998329502921727, 187.5022754166019, 0.0
3429, 7.496749026220013, 187.5048572067091, 0.0
3430, 9.998961511541886, 192.5034241879684, 0.0
3431, 7.499898442814896, 195.0011764907178, 0.0
3432, 4.999488418596963, 192.5012733202491, 0.0
3433, 7.499224965069425, 192.5023487541088, 0.0
3434, 9.999939493480888, 197.5008586051082, 0.0
3435, 4.999958949387299, 197.5003178856096, 0.0
3436, 7.499949221434079, 197.5005882453589, 0.0
3437, 12.49989468814183, 195.0031695918249, 0.0
3438, 12.49838655829234, 192.5062346257224, 0.0
3439, 20.00034617174897, 197.5051717347863, 0.0
3440, 14.99995519474976, 197.5023109867167, 0.0
3441, 17.50015068324966, 197.5037413607515, 0.0
3442, 12.49994734411592, 197.5015847959125, 0.0
3443, 25.00197447022694, 197.5086797064531, 0.0
3444, 22.50116032098876, 197.5069257206197, 0.0
3445, 27.5032989080314, 197.5113912896917, 0.0
3446, 2.4988000336943, 185.0013199820158, 0.0
3447, 2.499529469227427, 190.000955434675, 0.0
3448, 2.499164751460864, 187.5011377083452, 0.0
3449, 2.496631297930889, 180.0015198300404, 0.0
3450, 2.497715665812595, 182.5014199060282, 0.0
3451, 2.493784865477652, 175.0000750457731, 0.0
3452, 2.495208081704271, 177.500797437906, 0.0
3453, 2.491094377847999, 172.498602921171, 0.0
3454, 2.499958949369535, 195.0003178856273, 0.0
3455, 2.499979474693287, 197.500158942814, 0.0
3456, 2.499744209298481, 192.5006366601512, 0.0
3457, 37.4211635427236, 177.8679249975478, 0.0
3458, 82.71452808922027, 37.35579431969084, 0.0
3459, 40.68074816235711, 149.3666889525006, 0.0
3460, 52.50882737555325, 168.1127592571607, 0.0
3461, 73.32881443622419, 46.95326901898213, 0.0
3462, 50.05060002140896, 177.9481091727475, 0.0
3463, 47.52588687998059, 177.9454740906951, 0.0
3464, 52.57295613540007, 177.9284090769006, 0.0
3465, 48.43854588832563, 119.4324852655957, 0.0
3466, 50.16578689043391, 118.0943642369307, 0.0
3467, 50.38030664493635, 119.8744646268419, 0.0
3468, 44.80522738820397, 22.05716321665688, 0.0
3469, 42.27067813998236, 22.08200298909247, 0.0
3470, 54.94351770051454, 48.27838207834348, 0.0
3471, 54.55725371701728, 45.96458407852289, 0.0
3472, 28.92027710826792, 47.12074505470301, 0.0
3473, 26.57515323129626, 47.14281126006526, 0.0
3474, 64.67162779267024, 56.05111499074155, 0.0
3475, 52.48552319031408, 26.88102920715889, 0.0
3476, 7.294621579962538, 132.4917804460858, 0.0
3477, 31.75382298700934, 36.99261602780805, 0.0
3478, 83.07662055969956, 57.25180792061951, 0.0
3479, 73.43738223909436, 147.9687525221365, 0.0
3480, 27.01710970569185, 32.11466620334284, 0.0
3481, 36.68024349110573, 42.79738631222862, 0.0
3482, 21.92956816532959, 155.3129632891417, 0.0
3483, 21.99020315241783, 157.7835570870836, 0.0
3484, 37.23994171366238, 115.3276700093766, 0.0
3485, 34.63000447292353, 117.2838498599693, 0.0
3486, 32.63428109233023, 115.0216427831575, 0.0
3487, 35.24421833306909, 113.0654629325649, 0.0
3488, 34.93711140299631, 115.1746563962671, 0.0
3489, 60.85048943707918, 91.16862787061011, 0.0
3490, 59.45583128112374, 87.5742409216642, 0.0
3491, 62.20811473650761, 86.22929332564544, 0.0
3492, 61.52930208679339, 88.69896059812777, 0.0
3493, 56.05309144622682, 57.43696609863036, 0.0
3494, 55.59030886189556, 52.84138632383637, 0.0
3495, 55.82170015406119, 55.13917621123336, 0.0
3496, 60.35535351966938, 31.82045341745752, 0.0
3497, 62.88090477990556, 31.88684284479626, 0.0
3498, 42.36357028386969, 173.0717168294869, 0.0
3499, 43.1687071740723, 61.2633977759555, 0.0
3500, 45.10029306131369, 62.86122322233646, 0.0
3501, 43.29677010005031, 63.300872743735, 0.0
3502, 42.86702613833824, 135.1283323920321, 0.0
3503, 44.67367315446506, 137.7532090944435, 0.0
3504, 40.23833386399473, 136.3180189528471, 0.0
3505, 42.45600350922989, 137.0356140236453, 0.0
3506, 52.04672584897841, 84.52921495561134, 0.0
3507, 54.36041854501262, 83.33972184792808, 0.0
3508, 55.66488227195713, 85.80533664896862, 0.0
3509, 53.85580406046777, 85.16727580228999, 0.0
3510, 38.04736397691863, 69.0158373826392, 0.0
3511, 36.3332660520969, 66.34569722402166, 0.0
3512, 38.70784032988758, 66.81679469174962, 0.0
3513, 68.83100358739868, 133.3969539656472, 0.0
3514, 69.42967079372396, 131.3874801835823, 0.0
3515, 46.98550313504938, 136.2169879838622, 0.0
3516, 48.76193239190452, 138.7467095828729, 0.0
3517, 46.7178027731848, 138.2499593386582, 0.0
3518, 47.2129924080899, 132.8215514269546, 0.0
3519, 48.84618491543748, 135.0639794306916, 0.0
3520, 45.3523106277018, 133.9745599801252, 0.0
3521, 47.09924777156964, 134.5192697054084, 0.0
3522, 33.18844397283154, 67.06537018804039, 0.0
3523, 34.31394666187774, 64.72305973847328, 0.0
3524, 38.5474902175209, 73.47768048215156, 0.0
3525, 35.82772652702873, 71.17637381730347, 0.0
3526, 40.7671276674108, 71.31714404748732, 0.0
3527, 38.29742709721977, 71.2467589323954, 0.0
3528, 83.23029875599431, 67.13828098473549, 0.0
3529, 41.55495522878066, 79.4193284363474, 0.0
3530, 38.58560939463354, 78.80410119247779, 0.0
3531, 39.22421609200975, 76.6466069151902, 0.0
3532, 40.3895856603952, 78.03296767576882, 0.0
3533, 51.52426449841997, 74.55237977581291, 0.0
3534, 53.31033267234502, 76.89040159279591, 0.0
3535, 51.01874703199208, 78.71909873522492, 0.0
3536, 51.27150576520602, 76.63573925551891, 0.0
3537, 43.00833214038879, 71.51708886798268, 0.0
3538, 47.35879238347857, 22.051911730826, 0.0
3539, 41.00858131824094, 132.5406239450343, 0.0
3540, 43.49386580760451, 131.3868515331274, 0.0
3541, 43.18044597297138, 133.2575919625797, 0.0
3542, 37.812671706959, 80.82496100249469, 0.0
3543, 35.28347816190151, 80.08213917405578, 0.0
3544, 36.05641584957606, 78.06127936403888, 0.0
3545, 36.93454377826752, 79.44312018326679, 0.0
3546, 36.9842988904721, 31.8789578293113, 0.0
3547, 58.1276673224029, 121.3010078757873, 0.0
3548, 58.095879462654, 123.6851448997951, 0.0
3549, 54.64831401642151, 123.1805045848901, 0.0
3550, 56.3879906694122, 122.2407562303387, 0.0
3551, 63.92652866301407, 95.24672847341235, 0.0
3552, 68.62511808346827, 94.05185306095464, 0.0
3553, 66.27582337324117, 94.64929076718349, 0.0
3554, 62.62399457189223, 74.79264946788682, 0.0
3555, 64.27847273841759, 71.26878205585612, 0.0
3556, 64.68418019497095, 74.63508221885601, 0.0
3557, 63.45123365515491, 73.03071576187148, 0.0
3558, 65.29096435135494, 115.1861463820685, 0.0
3559, 62.14278059782056, 115.0664982058455, 0.0
3560, 62.07433110916816, 112.6665799265288, 0.0
3561, 63.68264773026155, 113.9263631542986, 0.0
3562, 48.35693985832503, 88.27277684884781, 0.0
3563, 47.89881150548523, 85.84949220163814, 0.0
3564, 50.33879960986945, 85.7007264657112, 0.0
3565, 49.34786973409724, 86.98675165727951, 0.0
3566, 47.2396576276951, 60.68110478358085, 0.0
3567, 47.72846953074492, 65.54036183777109, 0.0
3568, 47.48406357922001, 63.11073331067597, 0.0
3569, 73.7597278599642, 56.77398441129996, 0.0
3570, 33.43581761138013, 69.7616645341864, 0.0
3571, 33.86226471040909, 74.29624819988152, 0.0
3572, 31.47035579476049, 72.88153891676444, 0.0
3573, 33.64904116089461, 72.02895636703396, 0.0
3574, 53.8011182561992, 72.73949297168144, 0.0
3575, 51.74604438863277, 72.44275154191897, 0.0
3576, 59.43028653227017, 113.0201184007274, 0.0
3577, 58.8789618579908, 110.4424329076893, 0.0
3578, 61.52300643488879, 110.0888944334907, 0.0
3579, 60.47664648357947, 111.5545064171091, 0.0
3580, 44.37623522829415, 80.76142674835012, 0.0
3581, 42.45286183280528, 84.12235746498955, 0.0
3582, 39.63158183329178, 82.78025915298682, 0.0
3583, 42.00390853079297, 81.77084295066848, 0.0
3584, 49.51839433453834, 115.6926142142832, 0.0
3585, 46.06290872283717, 116.5990449130339, 0.0
3586, 45.13270252887114, 114.2591237233617, 0.0
3587, 48.58818814057231, 113.352693024611, 0.0
3588, 47.32554843170473, 114.9758689688224, 0.0
3589, 57.89821791758941, 91.31220353908802, 0.0
3590, 56.91694561924051, 88.71855608312191, 0.0
3591, 56.23632398455522, 90.20192998662108, 0.0
3592, 60.4847158029179, 117.835816130942, 0.0
3593, 59.91924057462622, 115.5433223292899, 0.0
3594, 62.70825582611225, 117.3589920074976, 0.0
3595, 61.31374820036923, 116.4511571683937, 0.0
3596, 54.97072549977056, 79.31611870071347, 0.0
3597, 56.55835160056703, 81.77980872051475, 0.0
3598, 52.77279244421615, 80.8760318281268, 0.0
3599, 54.66557202239159, 81.32792027432077, 0.0
3600, 66.66256276312387, 73.46980500288413, 0.0
3601, 67.59268588792412, 75.97584353427035, 0.0
3602, 65.61430331977121, 77.14112075024224, 0.0
3603, 66.13843304144754, 75.30546287656318, 0.0
3604, 45.01752263120721, 87.56625324151887, 0.0
3605, 41.61341195151002, 86.8467076642834, 0.0
3606, 45.85697251250248, 84.84190304222501, 0.0
3607, 43.73519223200625, 85.8443053532542, 0.0
3608, 60.65706128608304, 78.09581092079483, 0.0
3609, 62.70347563868539, 78.01369064587331, 0.0
3610, 61.64052792898764, 76.4442301943408, 0.0
3611, 40.16557689882205, 119.7922432690332, 0.0
3612, 41.67606536059695, 116.951608503432, 0.0
3613, 43.82911202844673, 118.2578040685612, 0.0
3614, 42.31862356667183, 121.0984388341624, 0.0
3615, 41.99734446363439, 119.0250236687972, 0.0
3616, 46.20474919393519, 121.091244421123, 0.0
3617, 46.13382895838618, 118.8451446670784, 0.0
3618, 28.30657296282864, 114.415527467891, 0.0
3619, 30.63626546744982, 112.6707563479963, 0.0
3620, 30.30458858770904, 116.7664139030522, 0.0
3621, 30.47042702757943, 114.7185851255243, 0.0
3622, 57.30167598865854, 115.7221292881204, 0.0
3623, 56.81272194630251, 113.1989253595579, 0.0
3624, 58.36598126046437, 114.3711238444239, 0.0
3625, 69.86973532619103, 82.27864857392116, 0.0
3626, 70.05855943103569, 84.69574959505543, 0.0
3627, 72.76840902590254, 92.97141683054578, 0.0
3628, 71.04845810222656, 95.65434957646966, 0.0
3629, 70.69676355468539, 93.5116349457502, 0.0
3630, 46.5333097108627, 88.87920021768115, 0.0
3631, 45.2329473878973, 57.79287669441416, 0.0
3632, 47.75042119984711, 55.91727421142737, 0.0
3633, 47.4950394137711, 58.29918949750412, 0.0
3634, 39.09245955469734, 133.8010309352265, 0.0
3635, 37.23437109793036, 131.5479493056224, 0.0
3636, 39.12147620808565, 132.0442866253284, 0.0
3637, 72.38041474512826, 99.47108617975411, 0.0
3638, 73.6632320915312, 96.91963329388821, 0.0
3639, 71.71443642367741, 97.56271787811187, 0.0
3640, 37.39335797805541, 84.49961230953927, 0.0
3641, 35.57444785172263, 82.54431415904713, 0.0
3642, 37.60301484250721, 82.66228665601699, 0.0
3643, 57.19999107885151, 148.9797653527212, 0.0
3644, 59.42324809394552, 148.8419071567042, 0.0
3645, 66.3727905179627, 80.38822508407786, 0.0
3646, 63.46196283687689, 81.26079497970893, 0.0
3647, 64.53813307832405, 79.20095786497559, 0.0
3648, 76.82680131414406, 92.30651090760813, 0.0
3649, 75.0027246625517, 94.77745152506748, 0.0
3650, 74.7976051700233, 92.63896386907695, 0.0
3651, 26.60489761635718, 98.29808649254679, 0.0
3652, 23.99559197501013, 98.75574722762943, 0.0
3653, 25.01698295695594, 97.28500080955662, 0.0
3654, 39.12667153018376, 93.09205960865381, 0.0
3655, 40.4059877120182, 93.76817862659897, 0.0
3656, 55.42029184036201, 75.2348195416235, 0.0
3657, 55.94662896370931, 71.16437908929112, 0.0
3658, 55.68346040203566, 73.19959931545732, 0.0
3659, 83.3456519258757, 127.8179478902103, 0.0
3660, 62.43872323196174, 98.92583804219316, 0.0
3661, 61.10720309602344, 94.40747327522325, 0.0
3662, 61.86719073431043, 96.64791263058322, 0.0
3663, 22.54376409100051, 81.55499175690997, 0.0
3664, 21.0741658440712, 85.74056296360106, 0.0
3665, 21.80896496753585, 83.64777736025553, 0.0
3666, 27.72916048836731, 70.87745026828637, 0.0
3667, 30.19179049939299, 69.91238852483417, 0.0
3668, 29.5997581415639, 71.8794945925254, 0.0
3669, 36.23285845480692, 94.10152766277183, 0.0
3670, 35.58147581137708, 96.0303264937877, 0.0
3671, 35.1179891831583, 104.1951929347363, 0.0
3672, 32.59871309287232, 105.2665884670271, 0.0
3673, 33.27285133683175, 103.5019721228609, 0.0
3674, 32.7741164372494, 80.43046811405841, 0.0
3675, 34.17428214448601, 81.48739113655277, 0.0
3676, 57.08068466778755, 77.66053664954107, 0.0
3677, 55.19550867006628, 77.2754691211685, 0.0
3678, 37.14109265969807, 136.8908644727457, 0.0
3679, 35.99521835040068, 134.3738764551252, 0.0
3680, 38.11677610719771, 135.3459477039861, 0.0
3681, 50.69486782479641, 82.61571984012537, 0.0
3682, 48.94082241257235, 80.45878674722348, 0.0
3683, 50.85680742839425, 80.66740928767514, 0.0
3684, 55.26691328120506, 50.55988420108993, 0.0
3685, 32.81476130174514, 76.95848407729389, 0.0
3686, 31.15064340768728, 78.74852065446397, 0.0
3687, 31.11991475989217, 49.9223792675552, 0.0
3688, 31.24585342992506, 47.30980124385765, 0.0
3689, 59.58259278348454, 92.80646277534373, 0.0
3690, 36.91655765850227, 111.5219916993721, 0.0
3691, 36.96260142727142, 108.8076286947708, 0.0
3692, 39.28859464042112, 108.721940492369, 0.0
3693, 39.24255087165197, 111.4363034969703, 0.0
3694, 38.10257614946169, 110.1219660958706, 0.0
3695, 60.77485102253004, 82.71623433411645, 0.0
3696, 62.83503878669225, 83.7450441526772, 0.0
3697, 74.94563477427317, 100.6557232850791, 0.0
3698, 73.66946909432485, 103.2523783866527, 0.0
3699, 73.02494191972656, 101.3617322832034, 0.0
3700, 21.87925361807981, 152.8426495289031, 0.0
3701, 28.83170829221047, 98.53031802916797, 0.0
3702, 26.23544230490397, 101.1291957225664, 0.0
3703, 27.53357529855722, 99.82975687586716, 0.0
3704, 72.45062459768235, 110.3104149956166, 0.0
3705, 69.9668843262275, 113.4572178511639, 0.0
3706, 70.10961309451659, 110.9258682285189, 0.0
3707, 46.49208041375793, 111.0691867964965, 0.0
3708, 50.18269056157631, 111.9029038892574, 0.0
3709, 48.31864245829866, 111.5802729139423, 0.0
3710, 60.37007592566623, 130.1550273581473, 0.0
3711, 62.30353015395143, 130.2752257666144, 0.0
3712, 55.8358441616916, 110.5588031975948, 0.0
3713, 58.49206874214839, 108.0385612944502, 0.0
3714, 57.21733208515451, 109.3785645213302, 0.0
3715, 71.73620186273405, 77.54018811904376, 0.0
3716, 69.3323356715338, 79.47784736267617, 0.0
3717, 69.99655207912437, 74.03818429063796, 0.0
3718, 69.66444387532908, 76.75801582665707, 0.0
3719, 35.52832537733013, 91.45179220613332, 0.0
3720, 38.42213845270696, 90.44232415201532, 0.0
3721, 37.32749845375695, 92.27192590739358, 0.0
3722, 44.45382920402071, 122.3750259407216, 0.0
3723, 43.31856940064151, 124.8791146312279, 0.0
3724, 41.18336376329262, 123.6025275246687, 0.0
3725, 42.81859648365667, 122.9887767326952, 0.0
3726, 75.63514693600679, 98.18725649102436, 0.0
3727, 75.31893579927925, 96.48235400804592, 0.0
3728, 69.1511151371204, 122.6510772164199, 0.0
3729, 71.32404234283342, 120.6944882414209, 0.0
3730, 71.04018060440805, 122.8470358152419, 0.0
3731, 30.69750198121012, 98.87120982629008, 0.0
3732, 65.34095149489112, 121.9857925318723, 0.0
3733, 67.69253708188437, 120.2039339452844, 0.0
3734, 67.24603331600575, 122.3184348741461, 0.0
3735, 39.2784320798996, 105.7437264501338, 0.0
3736, 41.85523098398784, 108.4271650985341, 0.0
3737, 40.4869492552656, 107.1388214061458, 0.0
3738, 68.74991734076147, 115.8977737565527, 0.0
3739, 69.84970291697154, 118.971108778237, 0.0
3740, 66.5927515056743, 117.1305989236001, 0.0
3741, 68.22122721132293, 118.0508538509185, 0.0
3742, 46.23662470918505, 124.4384468427069, 0.0
3743, 46.22068695156012, 122.7648456319149, 0.0
3744, 68.12126292207687, 81.33343682899951, 0.0
3745, 67.94247377302369, 71.27742752477045, 0.0
3746, 69.98179163153172, 71.49082506236974, 0.0
3747, 39.96019634126291, 58.98293131718059, 0.0
3748, 42.69826231327718, 58.80626478240666, 0.0
3749, 41.5644517576676, 60.12316454656803, 0.0
3750, 17.05446462330634, 77.59674379354874, 0.0
3751, 64.01004298043162, 119.3034445490291, 0.0
3752, 64.65050366589327, 117.2447954655488, 0.0
3753, 72.85015444653999, 114.6197780312426, 0.0
3754, 71.63318746107397, 117.0603339366314, 0.0
3755, 70.80003589365072, 115.2587758938976, 0.0
3756, 44.9438811190665, 50.22039949459498, 0.0
3757, 46.07988226531596, 53.73303977629699, 0.0
3758, 43.83482494531273, 54.24634496377098, 0.0
3759, 44.38935303218962, 52.23337222918298, 0.0
3760, 37.10391925824, 75.39904348662651, 0.0
3761, 34.95934027999256, 76.17876378196021, 0.0
3762, 76.10465512135977, 104.7111535358725, 0.0
3763, 74.43105905860756, 107.4953297662731, 0.0
3764, 74.0502640764662, 105.3738540764629, 0.0
3765, 66.89481282707254, 105.2772386315231, 0.0
3766, 64.75737607521847, 104.5355985358908, 0.0
3767, 65.3256108379006, 102.5652602051027, 0.0
3768, 66.11021183248658, 103.9212494183129, 0.0
3769, 21.71241860859935, 57.43700187322956, 0.0
3770, 38.26925717649699, 87.30384056544982, 0.0
3771, 34.56016552047089, 88.58834625495172, 0.0
3772, 35.97676174926315, 86.54397928224549, 0.0
3773, 38.28572089111067, 103.1098791601682, 0.0
3774, 38.25296713646094, 101.217641346166, 0.0
3775, 23.43772865973194, 100.8338904542406, 0.0
3776, 24.71329806461802, 102.5692790752838, 0.0
3777, 59.12943468925671, 79.8350215671203, 0.0
3778, 58.86887297693529, 77.87817378516796, 0.0
3779, 33.86373305442664, 107.6905652239435, 0.0
3780, 31.33316116330656, 108.7853990452139, 0.0
3781, 31.96593712808944, 107.0259937561205, 0.0
3782, 61.9213345505412, 101.7547783701142, 0.0
3783, 63.88216703493116, 100.7455491236479, 0.0
3784, 26.22574958436056, 111.8930015643667, 0.0
3785, 26.06881003793669, 114.0992239415493, 0.0
3786, 74.76481266197612, 112.0259532375242, 0.0
3787, 74.59793586029184, 109.7606415018987, 0.0
3788, 36.11070037194723, 106.8290402247019, 0.0
3789, 34.71563410975082, 109.6691536940124, 0.0
3790, 35.41316724084903, 108.2490969593572, 0.0
3791, 43.27895337043364, 113.503761051377, 0.0
3792, 44.63833125532044, 110.3138241245118, 0.0
3793, 44.88551689209578, 112.2864739239367, 0.0
3794, 41.3001398706926, 55.25973305176348, 0.0
3795, 43.26654362929494, 56.52630487308883, 0.0
3796, 53.65967516160782, 110.963040428024, 0.0
3797, 51.928948571674, 113.2465466504522, 0.0
3798, 51.93992589057791, 111.5271997283044, 0.0
3799, 54.63655294621873, 113.6031625899871, 0.0
3800, 55.23619855395517, 112.0809828937909, 0.0
3801, 41.94251331610891, 110.5860576616, 0.0
3802, 43.19340548311948, 109.4503768857399, 0.0
3803, 56.29338512313407, 125.9178699322745, 0.0
3804, 54.17675322649429, 126.9849710253435, 0.0
3805, 54.4125336214579, 125.0827378051168, 0.0
3806, 83.45933173157024, 108.0302853225448, 0.0
3807, 60.52964333430302, 104.9663919674468, 0.0
3808, 60.8667805240273, 107.5560021717503, 0.0
3809, 59.59073831508732, 106.5558522636031, 0.0
3810, 33.41199380499472, 90.61035677027425, 0.0
3811, 56.18343529835943, 59.79081151305914, 0.0
3812, 36.76816561040172, 139.3696627914032, 0.0
3813, 62.83158022675916, 104.8077531649407, 0.0
3814, 61.31971651329949, 103.3793282030895, 0.0
3815, 38.93141711532557, 56.5604733267959, 0.0
3816, 38.47473313891767, 58.1994198084803, 0.0
3817, 47.8528195995726, 52.25094192132443, 0.0
3818, 46.90619538262409, 50.22135053984977, 0.0
3819, 56.35994007177645, 129.7332577956648, 0.0
3820, 58.25850696532292, 127.7398547700989, 0.0
3821, 58.36500799872134, 129.9441425769061, 0.0
3822, 38.33701614828263, 117.9252716260614, 0.0
3823, 40.5789909259767, 114.3540068867472, 0.0
3824, 39.45800353712966, 116.1396392564043, 0.0
3825, 53.94424770885757, 131.7099018094451, 0.0
3826, 51.76106086357541, 128.9616150391238, 0.0
3827, 54.06050046767592, 129.3474364173943, 0.0
3828, 37.19821063152895, 104.9694596924351, 0.0
3829, 37.46884689639577, 53.54114745302727, 0.0
3830, 39.38449338354418, 54.40044025239538, 0.0
3831, 54.8791896058874, 136.7679084517122, 0.0
3832, 52.15653398936102, 134.1057440631606, 0.0
3833, 54.41171865737249, 134.2389051305786, 0.0
3834, 38.44766132047639, 121.3692371214423, 0.0
3835, 36.61910056993698, 119.5022654784704, 0.0
3836, 38.39233873437951, 119.6472543737518, 0.0
3837, 34.35032618024616, 121.2881128337056, 0.0
3838, 32.36123008323271, 119.0696972152044, 0.0
3839, 34.49016532658484, 119.2859813468374, 0.0
3840, 58.17719321398847, 125.712499834947, 0.0
3841, 77.94559157900304, 101.2285715005398, 0.0
3842, 76.79036925750492, 99.70791399578206, 0.0
3843, 49.0882099680088, 130.018432752531, 0.0
3844, 47.25154952387585, 126.8045236977214, 0.0
3845, 49.50630519372562, 127.8830693684226, 0.0
3846, 52.8739138779633, 139.1991089435635, 0.0
3847, 54.95632976430591, 139.2269460167871, 0.0
3848, 34.91495031953458, 130.0319214327176, 0.0
3849, 32.58437853162883, 127.8190471099099, 0.0
3850, 34.51563818528821, 125.5613432778128, 0.0
3851, 34.7152942524114, 127.7966323552652, 0.0
3852, 56.13872313657933, 68.98298865202301, 0.0
3853, 55.08999320523386, 149.1299570592919, 0.0
3854, 71.47861490195369, 118.8774110890261, 0.0
3855, 36.57736085913469, 123.5250276246419, 0.0
3856, 32.28860350639968, 123.3244284868765, 0.0
3857, 34.43298218276719, 123.4247280557592, 0.0
3858, 30.09112412522634, 121.0099038404745, 0.0
3859, 30.19785635646769, 118.8881588717633, 0.0
3860, 46.2100138327059, 130.3604002766918, 0.0
3861, 50.0911885433928, 132.4795839027938, 0.0
3862, 48.15060118804935, 131.4199920897428, 0.0
3863, 47.80162039970985, 54.0841080663759, 0.0
3864, 78.3744091010989, 103.7844719376605, 0.0
3865, 22.54761034362596, 99.48098460976382, 0.0
3866, 28.92613184643876, 110.243530466005, 0.0
3867, 33.04329478431762, 111.2126249272053, 0.0
3868, 30.98471331537819, 110.7280776966051, 0.0
3869, 34.97992622140995, 111.3673083132887, 0.0
3870, 30.59705057983676, 130.2431506377358, 0.0
3871, 30.15582041640508, 125.4714562430839, 0.0
3872, 30.37643549812092, 127.8573034404099, 0.0
3873, 30.12347227081571, 123.2406800417792, 0.0
3874, 41.24708788385291, 158.4018003024743, 0.0
3875, 26.56374077219164, 109.5279554490534, 0.0
3876, 48.98694158568745, 83.78723135022524, 0.0
3877, 50.51683371733293, 84.15822315291828, 0.0
3878, 66.11047325572063, 71.27310479031328, 0.0
3879, 47.7052285745241, 67.69334483232127, 0.0
3880, 50.9115303614057, 136.6901395910584, 0.0
3881, 50.50135945239924, 134.5848617469262, 0.0
3882, 61.01288448068809, 120.8896370627022, 0.0
3883, 57.59949864463272, 118.247186944027, 0.0
3884, 59.3061915626604, 119.5684120033646, 0.0
3885, 40.01777520210849, 88.64451590814936, 0.0
3886, 74.92241521265758, 114.2233454094919, 0.0
3887, 50.72431590846213, 141.255678935378, 0.0
3888, 50.81792313493391, 138.9729092632182, 0.0
3889, 26.73721921229138, 67.39304387217595, 0.0
3890, 25.7785021151738, 69.62886727060803, 0.0
3891, 44.33349421533231, 127.2451914862424, 0.0
3892, 43.91368001146841, 129.3160215096849, 0.0
3893, 54.65290146321698, 115.6958607308197, 0.0
3894, 51.94529708867225, 115.3392447912848, 0.0
3895, 53.29092501744549, 114.4712036906359, 0.0
3896, 65.22724045634777, 106.7557357604781, 0.0
3897, 63.30144460788846, 107.027890389528, 0.0
3898, 64.02941034155347, 105.7817444627094, 0.0
3899, 51.05554198955308, 116.7168045141077, 0.0
3900, 45.02609546704684, 146.0563773164031, 0.0
3901, 38.88036231121366, 123.5637775746553, 0.0
3902, 45.28505946225867, 125.8418191644746, 0.0
3903, 63.1769179877896, 121.4377147972873, 0.0
3904, 62.41222552138862, 108.5583924115093, 0.0
3905, 66.6992850372354, 106.7965573207305, 0.0
3906, 38.88585315476533, 75.06214369867088, 0.0
3907, 56.12620005392484, 116.9715238374233, 0.0
3908, 50.25849573038421, 143.7289275633527, 0.0
3909, 29.94441686084439, 67.21609417868817, 0.0
3910, 28.21469313142451, 65.95610371300305, 0.0
3911, 66.8061230360215, 133.9166320093813, 0.0
3912, 31.69011723611226, 68.48887935643728, 0.0
3913, 46.9451025927047, 82.77964219081211, 0.0
3914, 47.42195704909497, 84.31456719622513, 0.0
3915, 58.20376793384037, 84.66102148751091, 0.0
3916, 57.56035677654043, 86.68978878531642, 0.0
3917, 41.26075212104281, 112.4700322741737, 0.0
3918, 46.65852882043325, 80.6101067477868, 0.0
3919, 58.66660131154853, 82.24802152731561, 0.0
3920, 24.26493332245012, 79.6809479250764, 0.0
3921, 78.9449175651089, 92.25490941981519, 0.0
3922, 22.06042713578911, 89.91202528013172, 0.0
3923, 21.85639269788215, 92.30936766637416, 0.0
3924, 21.56729648993015, 87.82629412186637, 0.0
3925, 74.05280085234548, 77.40249852756679, 0.0
3926, 33.27785161291038, 52.66034255777383, 0.0
3927, 31.02517785742424, 52.48564866903605, 0.0
3928, 57.9118775858508, 34.17718463959743, 0.0
3929, 57.79504140885776, 31.76834128525154, 0.0
3930, 33.67579757200491, 132.8578485822204, 0.0
3931, 35.45508433496763, 132.2028989439214, 0.0
3932, 31.10134117803319, 132.8865203243269, 0.0
3933, 35.37334925465308, 53.10074500540055, 0.0
3934, 58.34678926321088, 38.99267464890032, 0.0
3935, 58.12933342453084, 36.58492964424887, 0.0
3936, 58.62811886423038, 41.38660143946623, 0.0
3937, 66.72151118777722, 68.95694723558339, 0.0
3938, 65.46909287877513, 67.687506338446, 0.0
3939, 66.52161478238096, 66.29367769329492, 0.0
3940, 67.77403309138307, 67.56311859043231, 0.0
3941, 66.6215629850791, 67.62531246443915, 0.0
3942, 64.3952563088576, 69.19586191990149, 0.0
3943, 63.16415266616718, 67.81189408645969, 0.0
3944, 64.23798923608472, 66.3035385050042, 0.0
3945, 64.31662277247116, 67.74970021245285, 0.0
3946, 63.02820025970598, 64.805043735258, 0.0
3947, 64.08072216331183, 63.41121509010692, 0.0
3948, 65.29051113969055, 64.90970985985314, 0.0
3949, 64.15935569969827, 64.85737679755556, 0.0
3950, 66.3217183769847, 63.63040815100648, 0.0
3951, 67.55282201967512, 65.01437598444826, 0.0
3952, 66.42166657968284, 64.9620429221507, 0.0
3953, 65.47127714721545, 137.6134291300793, 0.0
3954, 64.58839487782257, 138.8468142847065, 0.0
3955, 63.34251671069937, 137.7776150786788, 0.0
3956, 64.22539898009225, 136.5442299240516, 0.0
3957, 64.40689692895741, 137.6955221043791, 0.0
3958, 65.87834746227557, 139.899354057179, 0.0
3959, 64.95139077555291, 141.1493986453614, 0.0
3960, 63.66143819109992, 140.096858872889, 0.0
3961, 64.76989282668774, 139.998106465034, 0.0
3962, 62.69040708704748, 141.3635628946267, 0.0
3963, 61.44452891992427, 140.294363688599, 0.0
3964, 62.41556002397672, 139.0276596668613, 0.0
3965, 62.5529835555121, 140.195611280744, 0.0
3966, 61.2137562741833, 137.9418010272782, 0.0
3967, 62.14071296090596, 136.6917564390958, 0.0
3968, 62.27813649244133, 137.8597080529785, 0.0
3969, 57.45863919704857, 132.0583175639537, 0.0
3970, 58.60193267910274, 133.3040037063371, 0.0
3971, 57.69962982573484, 134.4158216134788, 0.0
3972, 56.55633634368067, 133.1701354710954, 0.0
3973, 57.57913451139171, 133.2370695887163, 0.0
3974, 59.48437886719094, 132.2385432034728, 0.0
3975, 60.64752901452481, 133.4378719415787, 0.0
3976, 59.7650828264366, 134.503332444443, 0.0
3977, 59.62473084681378, 133.3709378239579, 0.0
3978, 60.94808963905014, 135.6563037782715, 0.0
3979, 60.04578678568224, 136.7681216854132, 0.0
3980, 58.8627799730687, 135.6151503515847, 0.0
3981, 59.90543480605942, 135.6357270649281, 0.0
3982, 57.9406204544211, 136.7733256630039, 0.0
3983, 56.77747030708724, 135.573996924898, 0.0
3984, 57.82012514007796, 135.5945736382413, 0.0
3985, 71.00822746229008, 68.99645380444008, 0.0
3986, 69.88674385128186, 67.67378832312684, 0.0
3987, 70.87797100017241, 66.46179257450817, 0.0
3988, 71.99945461118064, 67.7844580558214, 0.0
3989, 70.94309923123123, 67.72912318947412, 0.0
3990, 68.92583490558806, 68.89047786376292, 0.0
3991, 68.73494203707688, 66.34642904979624, 0.0
3992, 68.83038847133247, 67.61845345677958, 0.0
3993, 68.54404916856568, 63.80238023582959, 0.0
3994, 69.72616918596742, 65.13443330117755, 0.0
3995, 68.63949560282126, 65.07440464281291, 0.0
3996, 70.74771453805475, 63.92713134457625, 0.0
3997, 71.89951635225974, 65.25449061790685, 0.0
3998, 70.81284276911357, 65.1944619595422, 0.0
3999, 25.53729993633814, 82.03585869405893, 0.0
4000, 27.16234011869062, 81.74225799327478, 0.0
4001, 27.34448947693254, 83.32934149943715, 0.0
4002, 25.71944929458005, 83.6229422002213, 0.0
4003, 26.44089470663534, 82.68260009674803, 0.0
4004, 26.99505756009469, 80.13501312536793, 0.0
4005, 28.60523094280119, 79.86157378632825, 0.0
4006, 28.77251350139712, 81.4688186542351, 0.0
4007, 27.88378553074591, 80.80191588980152, 0.0
4008, 30.36782008445764, 81.21554067693987, 0.0
4009, 30.54996944269956, 82.80262418310224, 0.0
4010, 28.95466285963904, 83.05590216039747, 0.0
4011, 29.66124147204834, 82.13572141866867, 0.0
4012, 29.15167901752693, 84.62282430481534, 0.0
4013, 27.54150563482043, 84.89626364385504, 0.0
4014, 28.24808424722973, 83.97608290212625, 0.0
4015, 63.54530684645443, 110.3662583822012, 0.0
4016, 64.91040328690016, 110.0559173538067, 0.0
4017, 65.54282545887646, 111.6686400795484, 0.0
4018, 64.17772901843072, 111.9789811079429, 0.0
4019, 64.54406615266544, 111.0174492308748, 0.0
4020, 64.37003419104548, 108.7553069203357, 0.0
4021, 65.64307755536962, 108.1328535996705, 0.0
4022, 66.18344665122433, 109.4334640331414, 0.0
4023, 65.27674042113489, 109.0943854767386, 0.0
4024, 67.3644369394269, 108.4988984202054, 0.0
4025, 67.99685911140318, 110.111621145947, 0.0
4026, 66.81586882320062, 111.0461867588831, 0.0
4027, 67.09015288131376, 109.7725425895442, 0.0
4028, 67.5403440712985, 112.9710217768955, 0.0
4029, 66.26730070697435, 113.5934750975608, 0.0
4030, 66.54158476508748, 112.3198309282219, 0.0
4031, 52.12642793975579, 118.175151318871, 0.0
4032, 53.11454270246846, 118.5048380006698, 0.0
4033, 52.97923158095809, 119.7925625877477, 0.0
4034, 51.99111681824542, 119.462875905949, 0.0
4035, 52.55282976035694, 118.9838569533094, 0.0
4036, 53.05895134937984, 117.3068383089935, 0.0
4037, 54.23796858669151, 117.5468000953905, 0.0
4038, 54.29355993978012, 118.7447997870668, 0.0
4039, 53.67625564457998, 118.0258190480301, 0.0
4040, 55.66347965169077, 118.8950366780621, 0.0
4041, 55.5281685301804, 120.1827612651401, 0.0
4042, 54.15824881826975, 120.0325243741447, 0.0
4043, 54.91086423498026, 119.4637805261034, 0.0
4044, 53.83203522216039, 121.4099738566244, 0.0
4045, 52.65301798484873, 121.1700120702274, 0.0
4046, 53.40563340155924, 120.6012682221861, 0.0
4047, 72.03207379758335, 84.88857035857981, 0.0
4048, 72.98752383285427, 83.2778339761808, 0.0
4049, 74.23332077175947, 84.41207317488119, 0.0
4050, 73.27787073648855, 86.0228095572802, 0.0
4051, 73.13269728467141, 84.6503217667305, 0.0
4052, 71.6637635898809, 82.11043866147871, 0.0
4053, 72.69717692921995, 80.53285839508142, 0.0
4054, 74.02093717219331, 81.70025370978351, 0.0
4055, 72.84235038103711, 81.9053461856311, 0.0
4056, 75.13231381560051, 80.15582955938794, 0.0
4057, 76.37811075450571, 81.29006875808832, 0.0
4058, 75.26673411109851, 82.8344929084839, 0.0
4059, 75.1995239633495, 81.49516123393593, 0.0
4060, 76.4345677459356, 83.93557599118257, 0.0
4061, 75.40115440659653, 85.51315625757987, 0.0
4062, 75.33394425884751, 84.17382458303187, 0.0
4063, 18.88456794885708, 71.39653385028663, 0.0
4064, 17.77481705616137, 72.57075924897674, 0.0
4065, 16.6341077342272, 71.40260245968723, 0.0
4066, 17.7438586269229, 70.2283770609971, 0.0
4067, 17.75933784154214, 71.39956815498692, 0.0
4068, 18.91331151931586, 73.68317405167423, 0.0
4069, 17.80577548539984, 74.91314143695638, 0.0
4070, 16.66728102224535, 73.8007266342589, 0.0
4071, 17.7902962707806, 73.74195034296656, 0.0
4072, 15.56195984710902, 75.08643600613306, 0.0
4073, 14.42125052517484, 73.91827921684356, 0.0
4074, 15.52657170031118, 72.63256984496937, 0.0
4075, 15.5442657737101, 73.85950292555121, 0.0
4076, 14.38364751959732, 71.40867106908784, 0.0
4077, 15.49118355351334, 70.17870368380571, 0.0
4078, 15.50887762691226, 71.40563676438754, 0.0
4079, 61.11144622788149, 123.302422913861, 0.0
4080, 62.31061086310324, 124.7252504845995, 0.0
4081, 61.16921501795088, 125.6928228306366, 0.0
4082, 59.97005038272913, 124.2699952598981, 0.0
4083, 61.14033062291618, 124.4976228722488, 0.0
4084, 63.57613976241368, 123.8415471772298, 0.0
4085, 64.65117134347734, 125.180505709301, 0.0
4086, 63.38564244416689, 126.0642090166708, 0.0
4087, 63.48089110329028, 124.9528780969503, 0.0
4088, 64.33654097107245, 127.3192985100747, 0.0
4089, 63.19514512592009, 128.2868708561118, 0.0
4090, 62.24424659901453, 127.0317813627078, 0.0
4091, 63.29039378504349, 127.1755399363913, 0.0
4092, 61.22698380802025, 128.0832227474122, 0.0
4093, 60.1519522269566, 126.7442642153409, 0.0
4094, 61.19809941298556, 126.8880227890244, 0.0
4095, 65.14267045493224, 128.5381241270139, 0.0
4096, 66.04083795289, 129.5605252113293, 0.0
4097, 65.10627258151109, 130.4144606270869, 0.0
4098, 64.20810508355333, 129.3920595427715, 0.0
4099, 65.12447151822167, 129.4762923770504, 0.0
4100, 67.06955979505669, 128.8369825601187, 0.0
4101, 67.87357082222667, 129.728990879887, 0.0
4102, 66.84484898005996, 130.4525335310977, 0.0
4103, 66.95720438755833, 129.6447580456081, 0.0
4104, 67.55470353644216, 131.2141490863191, 0.0
4105, 66.62013816506325, 132.0680845020767, 0.0
4106, 65.91028360868106, 131.3064689468553, 0.0
4107, 66.73249357256161, 131.2603090165872, 0.0
4108, 65.06987470808994, 132.2907971271598, 0.0
4109, 64.26586368091995, 131.3987888073914, 0.0
4110, 65.0880736448005, 131.3526288771233, 0.0
4111, 23.33050279742227, 65.65240929176905, 0.0
4112, 21.89555368199177, 64.15293735027032, 0.0
4113, 23.10574361481218, 62.83282814639914, 0.0
4114, 24.54069273024268, 64.33230008789788, 0.0
4115, 23.21812320611722, 64.24261871908408, 0.0
4116, 20.589179130186, 65.40556291631549, 0.0
4117, 19.25041463374085, 63.97357461264274, 0.0
4118, 20.55678918554661, 62.72094904659755, 0.0
4119, 20.57298415786631, 64.06325598145654, 0.0
4120, 19.31420930808681, 61.35644438075079, 0.0
4121, 20.52439924090722, 60.03633517687962, 0.0
4122, 21.76697911836703, 61.40083984272639, 0.0
4123, 20.54059421322692, 61.37864211173859, 0.0
4124, 22.88098443220209, 60.01324700102924, 0.0
4125, 24.21974892864724, 61.445235304702, 0.0
4126, 22.99336402350713, 61.42303757371419, 0.0
4127, 84.55461313371802, 125.3173303964741, 0.0
4128, 83.44090329250966, 124.1047704985474, 0.0
4129, 84.58899769705644, 122.8387809901762, 0.0
4130, 85.7027075382648, 124.051340888103, 0.0
4131, 84.57180541538723, 124.0780556933252, 0.0
4132, 82.2842046243428, 125.3607732633358, 0.0
4133, 81.17909904675452, 124.1582001089917, 0.0
4134, 82.33579771492137, 122.9021973442033, 0.0
4135, 82.31000116963209, 124.1314853037695, 0.0
4136, 81.23929640095314, 121.7096109334419, 0.0
4137, 82.3873908054999, 120.4436214250708, 0.0
4138, 83.48389211946814, 121.6362078358322, 0.0
4139, 82.36159426021064, 121.672909384637, 0.0
4140, 84.62338226039483, 120.3602315838783, 0.0
4141, 85.72848783798312, 121.5628047382224, 0.0
4142, 84.60618997872564, 121.5995062870273, 0.0
4143, 59.61267753319677, 62.72672846208647, 0.0
4144, 60.7588126230589, 64.26789886244372, 0.0
4145, 59.63556007627395, 65.27192438998668, 0.0
4146, 58.48942498641182, 63.73075398962943, 0.0
4147, 59.62411880473536, 63.99932642603657, 0.0
4148, 61.84437521538251, 63.10998852713359, 0.0
4149, 61.94263766738237, 65.96295407056812, 0.0
4150, 61.89350644138244, 64.53647129885086, 0.0
4151, 62.04090011938223, 68.81591961400264, 0.0
4152, 60.81938512059742, 66.96697959811108, 0.0
4153, 61.9917688933823, 67.38943684228536, 0.0
4154, 59.65844261935112, 67.81712031788689, 0.0
4155, 58.47461757502765, 66.12206510976247, 0.0
4156, 59.64700134781253, 66.54452235393677, 0.0
4157, 22.55835560780483, 115.982967223603, 0.0
4158, 21.46695379638777, 114.7234190838071, 0.0
4159, 22.67325238427179, 113.6717966328195, 0.0
4160, 23.76465419568884, 114.9313447726153, 0.0
4161, 22.61580399603831, 114.8273819282112, 0.0
4162, 20.27854426674858, 115.7893634107629, 0.0
4163, 19.1692533970867, 114.515493394999, 0.0
4164, 20.3576629267259, 113.4495490680432, 0.0
4165, 20.31810359673723, 114.6194562394031, 0.0
4166, 19.23048299881921, 112.1613571763111, 0.0
4167, 20.43678158670322, 111.1097347253234, 0.0
4168, 21.56396151460991, 112.3979266170555, 0.0
4169, 20.39722225671456, 112.2796418966833, 0.0
4170, 22.78814916073875, 111.3606260420361, 0.0
4171, 23.89744003040062, 112.6344960578, 0.0
4172, 22.73070077250527, 112.5162113374278, 0.0
4173, 53.13049113428964, 66.12834309219826, 0.0
4174, 52.04088307859506, 64.83062746024842, 0.0
4175, 53.08888990869782, 63.85494504416404, 0.0
4176, 54.1784979643924, 65.1526606761139, 0.0
4177, 53.10969052149373, 64.99164406818116, 0.0
4178, 51.00263190374262, 65.81407775723306, 0.0
4179, 49.90326819279771, 64.50859424438296, 0.0
4180, 50.94151936765015, 63.52514394739833, 0.0
4181, 50.97207563569638, 64.66961085231569, 0.0
4182, 49.83240000145493, 62.21189255364798, 0.0
4183, 50.88040683155769, 61.2362101375636, 0.0
4184, 51.98952619775291, 62.54946153131395, 0.0
4185, 50.91096309960392, 62.38067704248097, 0.0
4186, 53.04728868310599, 61.58154699612982, 0.0
4187, 54.1466523940509, 62.88703050897991, 0.0
4188, 53.06808929590191, 62.71824602014694, 0.0
4189, 58.28206932007856, 141.6678901509814, 0.0
4190, 59.40653409020253, 142.8251714221214, 0.0
4191, 58.33500878304389, 144.1287082806058, 0.0
4192, 57.21054401291991, 142.9714270094658, 0.0
4193, 58.30853905156121, 142.8982992157936, 0.0
4194, 60.46729993522269, 141.5363933965, 0.0
4195, 61.60252416748514, 142.6789158347769, 0.0
4196, 60.54175832246499, 143.9676938603982, 0.0
4197, 60.50452912884384, 142.7520436284492, 0.0
4198, 61.68774201686593, 145.095457465812, 0.0
4199, 60.61621670970727, 146.3989943242964, 0.0
4200, 59.47023301530634, 145.2712307188827, 0.0
4201, 60.57898751608613, 145.1833440923473, 0.0
4202, 58.38794824600922, 146.5895264102302, 0.0
4203, 57.25272401374676, 145.4470039719533, 0.0
4204, 58.36147851452655, 145.359117345418, 0.0
4205, 42.14720041497691, 156.024463962051, 0.0
4206, 40.90244991569013, 154.9056320566864, 0.0
4207, 41.97788171267074, 153.8149905466426, 0.0
4208, 43.22263221195752, 154.9338224520073, 0.0
4209, 42.06254106382382, 154.9197272543468, 0.0
4210, 39.81501905529959, 156.039074266809, 0.0
4211, 38.58226761942272, 154.8774416613655, 0.0
4212, 39.66969847981326, 153.7439994512428, 0.0
4213, 39.74235876755642, 154.8915368590259, 0.0
4214, 38.44894610734632, 152.5395661457205, 0.0
4215, 39.52437790432694, 151.4489246356767, 0.0
4216, 40.74513027679389, 152.6533579411991, 0.0
4217, 39.5970381920701, 152.5964620434598, 0.0
4218, 41.80856301036459, 151.6055171312341, 0.0
4219, 43.04131444624144, 152.7671497366776, 0.0
4220, 41.89322236151767, 152.7102538389383, 0.0
4221, 30.42878738120126, 76.00756462179308, 0.0
4222, 28.51204227347122, 76.44666278579963, 0.0
4223, 28.25231997627604, 74.83667651847318, 0.0
4224, 30.16906508400608, 74.39757835446665, 0.0
4225, 29.34055367873865, 75.42212057013313, 0.0
4226, 28.62555337504906, 78.12558176794599, 0.0
4227, 26.85501946293635, 78.49574721713263, 0.0
4228, 26.7415083613585, 76.81682823498627, 0.0
4229, 27.68353086820378, 77.47120500146613, 0.0
4230, 25.11718564486312, 77.11806096935301, 0.0
4231, 24.85746334766794, 75.50807470202656, 0.0
4232, 26.48178606416332, 75.20684196765983, 0.0
4233, 25.79948585451322, 76.16245146850642, 0.0
4234, 26.07585257135082, 73.66578841515329, 0.0
4235, 27.84638648346353, 73.29562296596663, 0.0
4236, 27.16408627381343, 74.25123246681324, 0.0
4237, 44.18893161207257, 151.6710594665433, 0.0
4238, 45.33183593765904, 152.7108113116657, 0.0
4239, 44.18421877182791, 153.8069015818, 0.0
4240, 44.18657519195024, 152.7389805241716, 0.0
4241, 46.6654837094509, 151.6455516416042, 0.0
4242, 47.62235742907663, 152.6544728866537, 0.0
4243, 46.28870965728478, 153.7197325567151, 0.0
4244, 46.47709668336783, 152.6826420991597, 0.0
4245, 47.05955277094978, 154.6978232016916, 0.0
4246, 45.91193560511866, 155.7939134718259, 0.0
4247, 45.14109249145366, 154.8158228268494, 0.0
4248, 46.10032263120171, 154.7568230142705, 0.0
4249, 44.17950593158326, 155.9427436970567, 0.0
4250, 44.18186235170559, 154.8748226394283, 0.0
4251, 48.19654400059129, 159.6996403966751, 0.0
4252, 46.35428962802314, 158.9865737063088, 0.0
4253, 47.05423980285497, 157.7467769342505, 0.0
4254, 48.89649417542311, 158.4598436246168, 0.0
4255, 47.62539190172312, 158.7232086654628, 0.0
4256, 45.38441449523644, 160.3523370971875, 0.0
4257, 43.81208508062316, 159.5133037880008, 0.0
4258, 44.78196021340985, 158.1475403971221, 0.0
4259, 45.08318735432316, 159.2499387471548, 0.0
4260, 43.47955575675142, 157.182540469115, 0.0
4261, 45.48191038824169, 156.9077436250638, 0.0
4262, 44.48073307249655, 157.0451420470894, 0.0
4263, 47.48426501973194, 156.6329467810126, 0.0
4264, 46.48308770398682, 156.7703452030382, 0.0
4265, 22.56729751243184, 102.9446990600961, 0.0
4266, 22.21526812863442, 104.2045071024493, 0.0
4267, 20.92331897939776, 103.4617403974685, 0.0
4268, 21.27534836319518, 102.2019323551153, 0.0
4269, 21.7453082459148, 103.2032197287823, 0.0
4270, 23.8150101362323, 105.0740257959064, 0.0
4271, 23.15518789407367, 106.2070818497832, 0.0
4272, 21.55544588647579, 105.3375631563262, 0.0
4273, 22.68522801135404, 105.2057944761163, 0.0
4274, 20.58783078595596, 106.3438672217268, 0.0
4275, 19.29588163671929, 105.601100516746, 0.0
4276, 20.26349673723913, 104.5947964513454, 0.0
4277, 20.42566376159754, 105.4693318365361, 0.0
4278, 19.27934044636368, 103.9787817348409, 0.0
4279, 19.93916268852231, 102.845725680964, 0.0
4280, 20.10132971288072, 103.7202610661547, 0.0
4281, 36.92289893303242, 128.8555665441218, 0.0
4282, 38.03899402745321, 127.8985738861349, 0.0
4283, 39.1911354715932, 129.1552362435397, 0.0
4284, 38.07504037717241, 130.1122289015266, 0.0
4285, 38.05701720231281, 129.0054013938308, 0.0
4286, 36.76952101335552, 126.6928686571192, 0.0
4287, 38.002947677734, 125.6849188707432, 0.0
4288, 39.27242069183168, 126.8906240997588, 0.0
4289, 38.02097085259361, 126.791746378439, 0.0
4290, 40.62317892616785, 125.8317171849936, 0.0
4291, 41.77532037030785, 127.0883795423984, 0.0
4292, 40.42456213597168, 128.1472864571636, 0.0
4293, 40.52387053106978, 126.9895018210786, 0.0
4294, 41.45937201015398, 129.4549059429575, 0.0
4295, 40.22594534577551, 130.4628557293336, 0.0
4296, 40.32525374087359, 129.3050710932486, 0.0
4297, 65.91682543551181, 97.44928586700155, 0.0
4298, 67.38026227233625, 98.00897840968769, 0.0
4299, 66.82365982844675, 99.35369052347012, 0.0
4300, 65.3602229916223, 98.79399798078398, 0.0
4301, 66.37024263197927, 98.40148819523583, 0.0
4302, 67.99558337868847, 96.64450543223201, 0.0
4303, 69.40030155305021, 97.22395883859141, 0.0
4304, 68.784980446698, 98.58843181604709, 0.0
4305, 68.39028191269323, 97.61646862413956, 0.0
4306, 70.13097995859704, 99.18764608607972, 0.0
4307, 69.57437751470754, 100.5323581998622, 0.0
4308, 68.2283780028085, 99.93314392982951, 0.0
4309, 69.17967898070277, 99.56039500795461, 0.0
4310, 67.7304942213817, 101.2580951799387, 0.0
4311, 66.32577604701996, 100.6786417735793, 0.0
4312, 67.27707702491422, 100.3058928517044, 0.0
4313, 35.69750958016036, 165.6511043772038, 0.0
4314, 37.01470792590998, 166.9033348773456, 0.0
4315, 35.82367057897062, 168.0953453138974, 0.0
4316, 34.506472233221, 166.8431148137556, 0.0
4317, 35.76059007956549, 166.8732248455506, 0.0
4318, 38.19838117532502, 165.7126297820617, 0.0
4319, 39.52294361859896, 166.9635549409355, 0.0
4320, 38.33927036918392, 168.1542600362194, 0.0
4321, 38.26882577225447, 166.9334449091406, 0.0
4322, 39.67119690998218, 169.4038798538252, 0.0
4323, 38.48015956304282, 170.595890290377, 0.0
4324, 37.14823302224456, 169.3462704727712, 0.0
4325, 38.40971496611337, 169.3750751632982, 0.0
4326, 35.94983157778088, 170.539586250591, 0.0
4327, 34.62526913450694, 169.2886610917172, 0.0
4328, 35.88675107837575, 169.3174657822442, 0.0
4329, 64.56258073683794, 85.88971682899111, 0.0
4330, 65.73871995522566, 85.05338914844884, 0.0
4331, 66.41822495308531, 86.40487334082822, 0.0
4332, 65.2420857346976, 87.2412010213705, 0.0
4333, 65.49040284496162, 86.14729508490967, 0.0
4334, 65.22787236487098, 83.65799111348474, 0.0
4335, 66.23535417575371, 82.86557727552719, 0.0
4336, 66.74620176610838, 84.2609753104913, 0.0
4337, 65.98703706548969, 83.95948321198802, 0.0
4338, 67.58502616948616, 83.51247531511851, 0.0
4339, 68.26453116734581, 84.86395950749787, 0.0
4340, 67.42570676396804, 85.61245950287068, 0.0
4341, 67.5053664667271, 84.56246740899459, 0.0
4342, 68.27386916933267, 86.92002985266532, 0.0
4343, 67.26638735844995, 87.71244369062285, 0.0
4344, 67.34604706120899, 86.66245159674676, 0.0
4345, 42.97298353719515, 77.82321763450284, 0.0
4346, 42.36317665245723, 76.33128064727939, 0.0
4347, 43.46529354249106, 75.7384687478908, 0.0
4348, 44.07510042722897, 77.23040573511426, 0.0
4349, 43.21913853984311, 76.78084319119682, 0.0
4350, 41.4141403151186, 76.7004506836168, 0.0
4351, 40.65125287768549, 75.43215555944451, 0.0
4352, 41.60028921502413, 75.0629855231071, 0.0
4353, 41.50721476507136, 75.88171810336195, 0.0
4354, 40.68432122489583, 74.01833226198599, 0.0
4355, 41.78643811492967, 73.42552036259741, 0.0
4356, 42.70240610505796, 74.47017362371852, 0.0
4357, 41.6933636649769, 74.24425294285226, 0.0
4358, 43.95760354778699, 73.65371986127877, 0.0
4359, 44.72049098522009, 74.92201498545106, 0.0
4360, 43.71144854513903, 74.69609430458479, 0.0
4361, 68.96804209775595, 101.7912737404659, 0.0
4362, 68.37334795861098, 102.9971105458832, 0.0
4363, 67.13580008223673, 102.463931985356, 0.0
4364, 68.05192108999634, 102.1276028629109, 0.0
4365, 70.8002841132752, 101.1186154955758, 0.0
4366, 70.19394869632362, 102.3775310361795, 0.0
4367, 69.88416310551557, 101.4549446180208, 0.0
4368, 71.40821401708469, 103.0168670670796, 0.0
4369, 70.81351987793971, 104.2227038724969, 0.0
4370, 69.59925455717864, 103.5833678415968, 0.0
4371, 70.50373428713166, 103.3001174543382, 0.0
4372, 69.01620169584024, 104.7361259118277, 0.0
4373, 67.79029509727258, 104.149868616114, 0.0
4374, 68.6947748272256, 103.8666182288554, 0.0
4375, 30.41991306667191, 105.4485686806118, 0.0
4376, 29.04832276869021, 105.8472336403049, 0.0
4377, 28.5918905234309, 104.4181128215983, 0.0
4378, 29.9634808214126, 104.0194478619052, 0.0
4379, 29.5059017950514, 104.933340751105, 0.0
4380, 29.71636933683258, 107.2742758959832, 0.0
4381, 28.13316471596782, 107.6750194187045, 0.0
4382, 27.46511814782545, 106.2479771630262, 0.0
4383, 28.59074374232901, 106.7611265295047, 0.0
4384, 25.67029920407763, 106.6507992487758, 0.0
4385, 25.21386695881831, 105.2216784300692, 0.0
4386, 27.00868590256614, 104.8188563443196, 0.0
4387, 26.33949255332188, 105.7348277965477, 0.0
4388, 26.76386798018989, 103.3876569625847, 0.0
4389, 28.34707260105465, 102.9869134398634, 0.0
4390, 27.6778792518104, 103.9028848920915, 0.0
4391, 40.12132661424714, 39.02427464007044, 0.0
4392, 41.3140937865483, 37.26152273376126, 0.0
4393, 42.89781619689385, 38.47234568307114, 0.0
4394, 41.70504902459269, 40.23509758938033, 0.0
4395, 41.5095714055705, 38.7483101615708, 0.0
4396, 39.75826743909112, 35.89063700917163, 0.0
4397, 40.9231385485039, 34.2879478781422, 0.0
4398, 42.47896489596108, 35.65883360273183, 0.0
4399, 41.1186161675261, 35.77473530595173, 0.0
4400, 43.61593994248548, 34.21620724698215, 0.0
4401, 45.19966235283103, 35.42703019629204, 0.0
4402, 44.06268730630663, 36.86965655204171, 0.0
4403, 43.83931362439606, 35.54293189951193, 0.0
4404, 45.67430577954056, 37.92041672607184, 0.0
4405, 44.50943467012778, 39.52310585710127, 0.0
4406, 44.28606098821721, 38.19638120457149, 0.0
4407, 31.75572776996201, 101.9452694300151, 0.0
4408, 30.68634836306822, 102.446920298036, 0.0
4409, 30.33983649783004, 101.3760436021876, 0.0
4410, 31.40921590472383, 100.8743927341667, 0.0
4411, 31.04778213389603, 101.6606565161013, 0.0
4412, 31.09969921104839, 103.6722331919558, 0.0
4413, 29.55012997343243, 102.7941349679854, 0.0
4414, 30.32491459224041, 103.2331840799706, 0.0
4415, 28.00056073581647, 101.916036744015, 0.0
4416, 29.20361810819425, 101.723258272137, 0.0
4417, 28.77534535462445, 102.3550858560002, 0.0
4418, 28.92394522569805, 100.80681777436, 0.0
4419, 30.06016361533384, 100.4596031044106, 0.0
4420, 29.63189086176404, 101.0914306882738, 0.0
4421, 75.79865006180691, 149.0949962822252, 0.0
4422, 77.00987079905612, 147.8097756706521, 0.0
4423, 78.17845699430859, 149.008547894691, 0.0
4424, 76.96723625705938, 150.2937685062641, 0.0
4425, 76.98855352805775, 149.0517720884581, 0.0
4426, 75.84129540791403, 146.6120658378183, 0.0
4427, 77.05250534105285, 145.3257828350401, 0.0
4428, 78.22108073219493, 146.5234926678739, 0.0
4429, 77.03118807005448, 146.5677792528461, 0.0
4430, 79.43227986122338, 145.2361472738906, 0.0
4431, 80.60086605647587, 146.4349194979296, 0.0
4432, 79.38966692744742, 147.7222648919129, 0.0
4433, 79.4109733943354, 146.4792060829017, 0.0
4434, 80.5582639268103, 148.9220995071569, 0.0
4435, 79.34705399367148, 150.2083825099351, 0.0
4436, 79.36836046055944, 148.965323700924, 0.0
4437, 72.8256556165433, 124.1436994475444, 0.0
4438, 73.93104937020577, 123.0453281388247, 0.0
4439, 74.84935835801028, 124.1851096545703, 0.0
4440, 73.74396460434781, 125.28348096329, 0.0
4441, 73.8375069872768, 124.1644045510574, 0.0
4442, 73.03283652684814, 121.9422893805836, 0.0
4443, 74.11813413606372, 120.8071753143595, 0.0
4444, 75.01634697942134, 121.9102140726006, 0.0
4445, 74.02459175313476, 121.9262517265921, 0.0
4446, 76.08154844419, 120.7383572488721, 0.0
4447, 76.99985743199451, 121.8781387646176, 0.0
4448, 75.93465596722584, 123.0499955883462, 0.0
4449, 76.00810220570793, 121.8941764186091, 0.0
4450, 76.87306109947724, 124.2265198615962, 0.0
4451, 75.78776349026168, 125.3616339278203, 0.0
4452, 75.86120972874376, 124.2058147580832, 0.0
4453, 33.3946899769774, 59.37527648678518, 0.0
4454, 34.23408148823116, 57.8327082451256, 0.0
4455, 35.15213270249217, 58.7977982313127, 0.0
4456, 34.3127411912384, 60.34036647297228, 0.0
4457, 34.27341133973479, 59.08653735904894, 0.0
4458, 33.23668070059075, 56.5680066336964, 0.0
4459, 34.15542178522392, 55.32505001727892, 0.0
4460, 35.15282257286434, 56.58975162870813, 0.0
4461, 34.19475163672754, 56.57887913120226, 0.0
4462, 36.15091323087692, 55.64640663753276, 0.0
4463, 37.06896444513794, 56.61149662371985, 0.0
4464, 36.07087378712535, 57.55484161489522, 0.0
4465, 36.11089350900114, 56.60062412621399, 0.0
4466, 36.90957542800695, 58.22031997584021, 0.0
4467, 35.99083434337378, 59.46327659225769, 0.0
4468, 36.03085406524957, 58.50905910357646, 0.0
4469, 55.79801239552118, 159.2982689422313, 0.0
4470, 57.24772617614794, 158.1343467934206, 0.0
4471, 58.30708723212399, 159.3827382317473, 0.0
4472, 56.85737345149723, 160.5466603805581, 0.0
4473, 57.05254981382259, 159.3405035869893, 0.0
4474, 56.24393016405888, 156.8832966693193, 0.0
4475, 57.63807890079865, 155.7220332062831, 0.0
4476, 58.64187491288772, 156.9730833303844, 0.0
4477, 57.44290253847329, 156.9281899998519, 0.0
4478, 59.98045860574051, 155.8144785531228, 0.0
4479, 61.03981966171656, 157.0628699914496, 0.0
4480, 59.70123596886377, 158.2214747687112, 0.0
4481, 59.84084728730214, 157.017976660917, 0.0
4482, 60.8161620687268, 159.4672075212634, 0.0
4483, 59.42201333198702, 160.6284709842996, 0.0
4484, 59.56162465042539, 159.4249728765054, 0.0
4485, 15.12224978143172, 96.38054733669006, 0.0
4486, 14.01724203807114, 97.7577057652603, 0.0
4487, 12.52831320932805, 96.38568381026872, 0.0
4488, 13.63332095268863, 95.00852538169849, 0.0
4489, 13.82528149537989, 96.38311557347939, 0.0
4490, 15.61836244912665, 99.1897080050721, 0.0
4491, 14.40116312345364, 100.5068861488221, 0.0
4492, 12.80004271239812, 99.0748839090103, 0.0
4493, 14.20920258076238, 99.1322959570412, 0.0
4494, 11.47065180441268, 100.3320817679401, 0.0
4495, 9.981722975669594, 98.96005981294846, 0.0
4496, 11.31111388365504, 97.70286195401872, 0.0
4497, 11.39088284403386, 99.01747186097938, 0.0
4498, 9.934376637224378, 96.39082028384738, 0.0
4499, 11.15157596289739, 95.07364214009738, 0.0
4500, 11.23134492327621, 96.38825204705806, 0.0
4501, 72.41020537358023, 89.7265963440322, 0.0
4502, 73.40577283702521, 88.35558626266157, 0.0
4503, 74.52924240100683, 89.31735288667234, 0.0
4504, 73.53367493756184, 90.68836296804297, 0.0
4505, 73.46972388729353, 89.52197461535228, 0.0
4506, 72.28088772548313, 87.42728958609763, 0.0
4507, 74.40275584803064, 86.95110623384413, 0.0
4508, 73.34182178675688, 87.18919790997089, 0.0
4509, 76.52462397057815, 86.47492288159063, 0.0
4510, 75.52622541201225, 87.9128728578549, 0.0
4511, 75.46368990930439, 86.71301455771737, 0.0
4512, 76.64827942843343, 88.90810942931247, 0.0
4513, 75.65129641742799, 90.3125894581299, 0.0
4514, 75.58876091472013, 89.11273115799239, 0.0
4515, 34.87861334647736, 102.0651398935197, 0.0
4516, 34.1927654775802, 100.7927981652219, 0.0
4517, 35.37616422644894, 100.1663100159176, 0.0
4518, 36.06201209534609, 101.4386517442154, 0.0
4519, 35.12738878646314, 101.1157249547186, 0.0
4520, 33.01536581510501, 101.4095716638697, 0.0
4521, 32.3235188598143, 100.1469445862285, 0.0
4522, 33.5009185222895, 99.53017108758067, 0.0
4523, 33.25814216869725, 100.4698713757252, 0.0
4524, 32.80307248060525, 98.27725866059589, 0.0
4525, 33.98647122947398, 97.6507705112916, 0.0
4526, 34.68431727115824, 98.90368293827636, 0.0
4527, 33.74369487588174, 98.59047079943613, 0.0
4528, 35.87371510642051, 98.26748013831558, 0.0
4529, 36.56556206171122, 99.53010721595683, 0.0
4530, 35.62493966643473, 99.2168950771166, 0.0
4531, 58.01607670019609, 70.59611975491111, 0.0
4532, 59.17941359626666, 69.98407737113453, 0.0
4533, 59.86372146925276, 71.53899204060562, 0.0
4534, 58.70038457318219, 72.1510344243822, 0.0
4535, 58.93989908472442, 71.06755589775837, 0.0
4536, 58.31683481295575, 68.41052036485638, 0.0
4537, 60.52102140266204, 69.39067732416504, 0.0
4538, 59.41892810780888, 68.90059884451071, 0.0
4539, 62.72520799236833, 70.37083428347373, 0.0
4540, 61.20532927564814, 70.94559199363613, 0.0
4541, 61.62311469751518, 69.88075580381938, 0.0
4542, 61.71136623830943, 72.48186432630013, 0.0
4543, 60.36975843191405, 73.07526437326962, 0.0
4544, 60.7875438537811, 72.01042818345287, 0.0
4545, 45.1463614387912, 72.74242664954875, 0.0
4546, 46.35989509029164, 71.82427779439764, 0.0
4547, 47.36438654167315, 72.97411893704016, 0.0
4548, 46.15085289017271, 73.89226779219126, 0.0
4549, 46.25537399023218, 72.85827279329446, 0.0
4550, 45.3527117879423, 70.69164072740733, 0.0
4551, 46.56893729041057, 69.75628779660403, 0.0
4552, 47.57612059275991, 70.88892486359435, 0.0
4553, 46.4644161903511, 70.79028279550084, 0.0
4554, 48.79503794619602, 69.93636785713889, 0.0
4555, 49.79952939757753, 71.0862089997814, 0.0
4556, 48.58061204414143, 72.03876600623687, 0.0
4557, 48.68782499516872, 70.98756693168788, 0.0
4558, 49.58241164455511, 73.20581122453159, 0.0
4559, 48.36618614208683, 74.14116415533488, 0.0
4560, 48.47339909311413, 73.08996508078587, 0.0
4561, 13.35211150080041, 140.1600157692702, 0.0
4562, 12.14263599421908, 138.8689808566527, 0.0
4563, 13.33202690651064, 137.6451895033865, 0.0
4564, 14.54150241309197, 138.9362244160039, 0.0
4565, 13.34206920365553, 138.9026026363283, 0.0
4566, 10.95193591396392, 140.0920040971865, 0.0
4567, 9.7437695753462, 138.8017372973016, 0.0
4568, 10.93446965560136, 137.5787140567678, 0.0
4569, 10.94320278478264, 138.8353590769772, 0.0
4570, 9.727612484947251, 136.2892153696154, 0.0
4571, 10.91700339723881, 135.0654240163491, 0.0
4572, 12.12386056789292, 136.3549227035016, 0.0
4573, 10.92573652642009, 136.3220690365585, 0.0
4574, 13.31194231222087, 135.1303632375028, 0.0
4575, 14.52010865083859, 136.4206300373877, 0.0
4576, 13.32198460936576, 136.3877763704446, 0.0
4577, 39.57159887564952, 33.07941006313566, 0.0
4578, 40.8836441302836, 31.80727279351301, 0.0
4579, 42.23518380313798, 33.01581060851954, 0.0
4580, 40.90339133939375, 33.04761033582761, 0.0
4581, 39.56132092392234, 30.59059380196256, 0.0
4582, 40.84414971206328, 29.32659770888381, 0.0
4583, 42.16647291842455, 30.54327670043427, 0.0
4584, 40.86389692117344, 30.56693525119841, 0.0
4585, 43.42008524007238, 29.28742178389944, 0.0
4586, 44.77162491292677, 30.49595959890598, 0.0
4587, 43.51801259127893, 31.7518145154408, 0.0
4588, 43.46904891567566, 30.51961814967012, 0.0
4589, 44.89876873062643, 32.95221115390341, 0.0
4590, 43.56697626688221, 32.98401088121147, 0.0
4591, 57.41585499990005, 74.64509876388054, 0.0
4592, 58.31874696572657, 73.96347168012697, 0.0
4593, 58.84000132409744, 75.09428185211817, 0.0
4594, 57.93710935827093, 75.77590893587174, 0.0
4595, 58.12792816199875, 74.86969030799935, 0.0
4596, 57.71575009584419, 72.67431255458584, 0.0
4597, 59.30338144306457, 73.44019354992332, 0.0
4598, 58.50956576945438, 73.0572530522546, 0.0
4599, 60.89101279028493, 74.20607454526083, 0.0
4600, 59.82463580143545, 74.57100372191454, 0.0
4601, 60.09719711667475, 73.82313404759208, 0.0
4602, 60.26414764829484, 75.54346494035583, 0.0
4603, 59.27951317095683, 76.06674307055948, 0.0
4604, 59.55207448619615, 75.31887339623702, 0.0
4605, 43.69912288689295, 142.6582694790581, 0.0
4606, 44.9423082852845, 141.9974795948124, 0.0
4607, 45.73822134397123, 143.3462878828248, 0.0
4608, 44.49503594557967, 144.0070777670705, 0.0
4609, 44.71867211543208, 143.0022786809415, 0.0
4610, 44.11908018806996, 140.6813112607889, 0.0
4611, 45.38958062498934, 139.9878814225542, 0.0
4612, 46.21280872220387, 141.3040497565777, 0.0
4613, 45.16594445513691, 140.9926805086833, 0.0
4614, 47.51062419765107, 140.5779799643542, 0.0
4615, 48.30653725633779, 141.9267882523666, 0.0
4616, 47.0087217808906, 142.6528580445901, 0.0
4617, 47.25967298927084, 141.6154190044721, 0.0
4618, 47.77731980104952, 144.0343062865914, 0.0
4619, 46.50681936413014, 144.7277361248261, 0.0
4620, 46.75777057251037, 143.6902970847081, 0.0
4621, 14.57615713585142, 56.1653948472041, 0.0
4622, 13.35802519505088, 57.44400130984956, 0.0
4623, 12.16783336225675, 56.18079090947197, 0.0
4624, 13.38596530305729, 54.90218444682651, 0.0
4625, 13.37199524905408, 56.17309287833803, 0.0
4626, 14.54460631212074, 58.71336227928309, 0.0
4627, 13.33008508704447, 59.98581817287262, 0.0
4628, 12.14350396997461, 58.71645720343909, 0.0
4629, 13.34405514104767, 58.7149097413611, 0.0
4630, 10.9325934606226, 59.98276252797269, 0.0
4631, 9.742401627828473, 58.71955212759509, 0.0
4632, 10.95331213718048, 57.4532468030615, 0.0
4633, 10.94295279890154, 58.71800466551709, 0.0
4634, 9.759509588662082, 56.19618697173983, 0.0
4635, 10.97403081373836, 54.9237310781503, 0.0
4636, 10.96367147545942, 56.18848894060589, 0.0
4637, 86.78879111034409, 79.78554237442304, 0.0
4638, 87.97220112220731, 81.07830979064741, 0.0
4639, 86.78740976799553, 82.30397009877396, 0.0
4640, 85.60399975613231, 81.0112026825496, 0.0
4641, 86.78810043916981, 81.04475623659852, 0.0
4642, 89.15638574099253, 79.85562763055908, 0.0
4643, 90.34040248828228, 81.1454168987452, 0.0
4644, 89.15621786949706, 82.36809905883351, 0.0
4645, 89.1563018052448, 81.1118633446963, 0.0
4646, 90.34084135221337, 83.6549101789814, 0.0
4647, 89.1560499980016, 84.88057048710795, 0.0
4648, 87.97142651528529, 83.59375936696006, 0.0
4649, 89.15613393374933, 83.62433477297073, 0.0
4650, 86.78602842564695, 84.82239782312485, 0.0
4651, 85.6020116783572, 83.53260855493875, 0.0
4652, 86.78671909682126, 83.5631839609494, 0.0
4653, 51.03041996294041, 148.395414741497, 0.0
4654, 49.2015888634055, 148.7332012649933, 0.0
4655, 49.10382669222183, 147.0970181586356, 0.0
4656, 50.93265779175675, 146.7592316351393, 0.0
4657, 50.06712332758112, 147.7462164500663, 0.0
4658, 48.94597982640684, 150.5536700665888, 0.0
4659, 47.47051993505424, 150.7071708948474, 0.0
4660, 47.7261289720529, 148.8867020932519, 0.0
4661, 48.33605439922987, 149.7201860799204, 0.0
4662, 46.60404028888263, 148.8559172262727, 0.0
4663, 46.50627811769895, 147.2197341199149, 0.0
4664, 47.62836680086923, 147.2505189868941, 0.0
4665, 47.11620354487593, 148.0532181065834, 0.0
4666, 47.17723342150323, 145.7986215757742, 0.0
4667, 48.65269331285583, 145.6451207475156, 0.0
4668, 48.14053005686253, 146.4478198672049, 0.0
4669, 77.03804235679104, 114.9712727490666, 0.0
4670, 78.07352104913457, 113.6783467978284, 0.0
4671, 79.18014076673418, 114.7094050928209, 0.0
4672, 78.14466207439065, 116.0023310440591, 0.0
4673, 78.10909156176261, 114.8403389209438, 0.0
4674, 76.95130960075929, 112.6825528264158, 0.0
4675, 78.00238002387846, 111.3543625515978, 0.0
4676, 79.12459147225373, 112.3501565230104, 0.0
4677, 78.03795053650651, 112.5163546747131, 0.0
4678, 80.19125362614852, 110.9867019246126, 0.0
4679, 81.29787334374814, 112.017760219605, 0.0
4680, 80.23121118985334, 113.3812148180029, 0.0
4681, 80.21123240800094, 112.1839583713077, 0.0
4682, 81.3222391766773, 114.4475374365751, 0.0
4683, 80.27116875355816, 115.7757277113931, 0.0
4684, 80.25118997170574, 114.578471264698, 0.0
4685, 23.6818574900856, 129.1052186057189, 0.0
4686, 24.78076588776089, 127.8807339042898, 0.0
4687, 25.97399896456486, 129.1163427200017, 0.0
4688, 24.87509056688958, 130.3408274214308, 0.0
4689, 24.82792822732523, 129.1107806628603, 0.0
4690, 23.62118990086809, 126.6463652917808, 0.0
4691, 24.6864412086322, 125.4206403871489, 0.0
4692, 25.846017195525, 126.6550089996579, 0.0
4693, 24.73360354819654, 126.6506871457194, 0.0
4694, 26.87761141337794, 125.428043891823, 0.0
4695, 28.07084449018192, 126.6636527075349, 0.0
4696, 27.03925027232897, 127.8906178153698, 0.0
4697, 26.95843084285346, 126.6593308535964, 0.0
4698, 28.26614043904412, 129.1274668342846, 0.0
4699, 27.20088913128001, 130.3531917389166, 0.0
4700, 27.1200697018045, 129.1219047771432, 0.0
4701, 36.86110383563165, 164.4615958731854, 0.0
4702, 38.01128097063118, 163.2727548378901, 0.0
4703, 39.34855831032453, 164.5237887467665, 0.0
4704, 38.10483107297809, 164.492692309976, 0.0
4705, 34.37364936093878, 164.3994029996043, 0.0
4706, 35.53724361641007, 163.2098944955859, 0.0
4707, 35.61737659828521, 164.4304994363949, 0.0
4708, 34.22680051766026, 161.9575256492633, 0.0
4709, 35.37697765265978, 160.768684613968, 0.0
4710, 36.68742075140959, 162.0210534602906, 0.0
4711, 35.45711063453493, 161.9892895547769, 0.0
4712, 37.82418076593734, 160.8328798937185, 0.0
4713, 39.14804098515893, 162.084581271318, 0.0
4714, 37.91773086828426, 162.0528173658043, 0.0
4715, 38.75596407585287, 61.48464748744249, 0.0
4716, 37.51723000142226, 61.71342591799568, 0.0
4717, 37.37339920961332, 60.47396203985008, 0.0
4718, 38.61213328404395, 60.24518360929689, 0.0
4719, 38.06468164273311, 60.97930476364628, 0.0
4720, 37.85545741640241, 63.14994060546935, 0.0
4721, 36.42232671880056, 63.18166822669448, 0.0
4722, 36.08409930382041, 61.74515353922082, 0.0
4723, 36.96977836011141, 62.44754707234508, 0.0
4724, 34.45657198304734, 61.57983035111788, 0.0
4725, 35.94026851201148, 60.50568966107522, 0.0
4726, 35.1984202475294, 61.04276000609655, 0.0
4727, 37.42396504097562, 59.43154897103255, 0.0
4728, 36.68211677649355, 59.96861931605389, 0.0
4729, 56.45650760111587, 165.6086058144225, 0.0
4730, 57.73567859004846, 166.8460330579725, 0.0
4731, 56.41595433804, 168.1002215222981, 0.0
4732, 55.1367833491074, 166.8627942787481, 0.0
4733, 56.43623096957793, 166.8544136683603, 0.0
4734, 59.06680282747317, 165.6036581850873, 0.0
4735, 60.3345738309895, 166.8292718371969, 0.0
4736, 59.00344959356479, 168.0716467100821, 0.0
4737, 59.03512621051898, 166.8376524475847, 0.0
4738, 60.25982061166486, 169.2854467707513, 0.0
4739, 58.94009635965639, 170.5396352350769, 0.0
4740, 57.68372534155633, 169.3258351744077, 0.0
4741, 58.97177297661059, 169.3056409725795, 0.0
4742, 56.3754010749641, 170.5918372301736, 0.0
4743, 55.10763007144778, 169.366223578064, 0.0
4744, 56.39567770650204, 169.3460293762358, 0.0
4745, 86.73085855569119, 64.804638334772, 0.0
4746, 87.92642405908911, 66.0851073720867, 0.0
4747, 86.74682154660425, 67.28808500330348, 0.0
4748, 85.55125604320632, 66.00761596598878, 0.0
4749, 86.7388400511477, 66.04636166903774, 0.0
4750, 89.10804578762222, 64.87896538752011, 0.0
4751, 90.3015920749719, 66.16259877818459, 0.0
4752, 89.1199703464388, 67.36874076275117, 0.0
4753, 89.11400806703051, 66.12385307513564, 0.0
4754, 90.31149741774024, 68.65553850676542, 0.0
4755, 89.13189490525538, 69.85851613798222, 0.0
4756, 87.94036783395394, 68.57171839396796, 0.0
4757, 89.12593262584708, 68.61362845036669, 0.0
4758, 86.76278453751735, 69.77153167183499, 0.0
4759, 85.56923825016766, 68.48789828117052, 0.0
4760, 86.7548030420608, 68.52980833756924, 0.0
4761, 27.37823066211691, 59.99575156619468, 0.0
4762, 26.30108332192914, 58.71980362544249, 0.0
4763, 27.46206552684555, 57.45274400563694, 0.0
4764, 28.53921286703332, 58.72869194638912, 0.0
4765, 27.42014809448123, 58.72424778591581, 0.0
4766, 25.16559490593865, 59.99971913080093, 0.0
4767, 24.06295377682496, 58.71091530449588, 0.0
4768, 25.19844219281544, 57.43099979913745, 0.0
4769, 25.18201854937705, 58.71535946496919, 0.0
4770, 24.07030727477582, 56.12934008727955, 0.0
4771, 25.23128947969224, 54.86228046747399, 0.0
4772, 26.35942439773186, 56.1639401793319, 0.0
4773, 25.21486583625384, 56.14664013330572, 0.0
4774, 27.54590039157419, 54.9097364450792, 0.0
4775, 28.64854152068789, 56.19854027138425, 0.0
4776, 27.50398295920987, 56.18124022535807, 0.0
4777, 21.67722636529444, 109.9952539216985, 0.0
4778, 22.97166852740621, 108.7838539459096, 0.0
4779, 24.08259132285052, 110.1492260662472, 0.0
4780, 22.87990884407248, 110.0722399939728, 0.0
4781, 19.27186140773836, 109.84128177715, 0.0
4782, 20.51230618632959, 108.7268009735251, 0.0
4783, 20.4745438865164, 109.9182678494243, 0.0
4784, 19.29338862384419, 107.5552671975157, 0.0
4785, 21.80674834844136, 107.5154009977362, 0.0
4786, 20.55006848614277, 107.535334097626, 0.0
4787, 24.32010807303853, 107.4755347979567, 0.0
4788, 23.06342821073994, 107.4954678978464, 0.0
4789, 86.94374754168847, 110.2830168652717, 0.0
4790, 88.09485171829638, 111.4771196346741, 0.0
4791, 86.93632100802472, 112.7864762189314, 0.0
4792, 85.7852168314168, 111.592373449529, 0.0
4793, 86.94003427485659, 111.5347465421016, 0.0
4794, 89.25066236586125, 110.1606329323325, 0.0
4795, 90.404486605176, 111.3618658198192, 0.0
4796, 89.24867595761114, 112.6783525221608, 0.0
4797, 89.2496691617362, 111.4194927272466, 0.0
4798, 90.40522025963274, 113.8867155277318, 0.0
4799, 89.24668954936108, 115.1960721119891, 0.0
4800, 88.09014524733948, 113.9877091064181, 0.0
4801, 89.24768275348612, 113.9372123170749, 0.0
4802, 86.92889447436102, 115.289935572591, 0.0
4803, 85.77507023504626, 114.0887026851044, 0.0
4804, 86.93260774119287, 114.0382058957612, 0.0
4805, 26.41832166402892, 53.58872208739575, 0.0
4806, 27.61027624718136, 52.3011952494066, 0.0
4807, 28.73785497472663, 53.62220960709006, 0.0
4808, 27.57808831937778, 53.60546584724291, 0.0
4809, 24.09878835333122, 53.55523456770145, 0.0
4810, 25.2858205376679, 52.28167618762321, 0.0
4811, 25.25855500868007, 53.5719783275486, 0.0
4812, 24.14839701249114, 50.98859874576158, 0.0
4813, 25.34035159564357, 49.70107190777242, 0.0
4814, 26.47777512082034, 50.99414934963405, 0.0
4815, 25.31308606665574, 50.99137404769781, 0.0
4816, 27.67465210278852, 49.69265405373397, 0.0
4817, 28.80715322914954, 50.99969995350652, 0.0
4818, 27.64246417498494, 50.99692465157028, 0.0
4819, 62.9862909381075, 135.554846069047, 0.0
4820, 63.78538419518011, 134.4640045048179, 0.0
4821, 65.02449223716486, 135.4533883598225, 0.0
4822, 64.00539158763618, 135.5041172144348, 0.0
4823, 61.79366761625168, 134.5193934082227, 0.0
4824, 61.96719028857882, 135.6055749236592, 0.0
4825, 61.44662227159742, 132.3470303773496, 0.0
4826, 62.59276087332429, 133.4285518439936, 0.0
4827, 61.62014494392455, 133.4332118927861, 0.0
4828, 63.34536941026798, 132.3837790855841, 0.0
4829, 64.5379927321238, 133.4192317464084, 0.0
4830, 63.56537680272405, 133.423891795201, 0.0
4831, 26.84909488093599, 120.8240080251871, 0.0
4832, 25.79399577824768, 119.6507854555607, 0.0
4833, 26.93388498951936, 118.6211464691367, 0.0
4834, 27.98898409220767, 119.794369038763, 0.0
4835, 26.89148993522767, 119.7225772471619, 0.0
4836, 24.66031353338263, 120.7077889771537, 0.0
4837, 23.5990074642877, 119.5072018723585, 0.0
4838, 24.73268970915276, 118.4501983507655, 0.0
4839, 24.69650162126769, 119.5789936639596, 0.0
4840, 23.66517667365121, 117.2222467108015, 0.0
4841, 24.80506588492288, 116.1926077243774, 0.0
4842, 25.87257892042444, 117.4205593643415, 0.0
4843, 24.76887779703782, 117.3214030375715, 0.0
4844, 27.01867509810274, 116.4182849130864, 0.0
4845, 28.07998116719767, 117.6188720178816, 0.0
4846, 26.97628004381105, 117.5197156911115, 0.0
4847, 35.14488268933919, 141.5706818500083, 0.0
4848, 36.31398102272527, 143.0188208572983, 0.0
4849, 35.0105162398443, 143.9697887339221, 0.0
4850, 33.84141790645823, 142.5216497266321, 0.0
4851, 35.07769946459175, 142.7702352919652, 0.0
4852, 37.64559443287153, 142.1262403701132, 0.0
4853, 38.78654413899231, 143.5159919879645, 0.0
4854, 37.45493072884604, 144.4085724751496, 0.0
4855, 37.55026258085879, 143.2674064226314, 0.0
4856, 38.56773180770152, 145.7399367035621, 0.0
4857, 37.26426702482055, 146.690904580186, 0.0
4858, 36.15146594596508, 145.3595403517734, 0.0
4859, 37.3595988768333, 145.5497385276678, 0.0
4860, 34.87614979034941, 146.368895617836, 0.0
4861, 33.73520008422863, 144.9791439999847, 0.0
4862, 34.94333301509685, 145.1693421758791, 0.0
4863, 49.40025531508299, 121.4700574489464, 0.0
4864, 50.42721990443971, 122.6778502586434, 0.0
4865, 49.12357905427008, 123.4279004118209, 0.0
4866, 48.09661446491337, 122.220107602124, 0.0
4867, 49.26191718467653, 122.4489789303837, 0.0
4868, 51.78939748379459, 121.8390725845599, 0.0
4869, 52.75782534396605, 123.1355929151628, 0.0
4870, 51.39564776461117, 123.9743705892463, 0.0
4871, 51.59252262420289, 122.9067215869031, 0.0
4872, 52.30553889559739, 125.3596184407553, 0.0
4873, 51.00189804542777, 126.1096685939328, 0.0
4874, 50.09200691444155, 124.7244207424239, 0.0
4875, 51.19877290501947, 125.0420195915896, 0.0
4876, 48.84690279345718, 125.3857433746954, 0.0
4877, 47.87847493328571, 124.0892230440925, 0.0
4878, 48.98524092386363, 124.4068218932582, 0.0
4879, 47.18358518166886, 48.1567362542911, 0.0
4880, 45.84282786506076, 47.13875666146635, 0.0
4881, 46.76918696589856, 46.01918237798685, 0.0
4882, 48.10994428250667, 47.03716197081161, 0.0
4883, 46.97638607378371, 47.08795931613898, 0.0
4884, 44.7355571496823, 48.22678206245911, 0.0
4885, 43.57571144761484, 47.24035135212107, 0.0
4886, 44.6829821629933, 46.1523259511283, 0.0
4887, 44.7092696563378, 47.18955400679371, 0.0
4888, 43.70404807546649, 45.197444123277, 0.0
4889, 44.6304071763043, 44.07786983979751, 0.0
4890, 45.60934126383111, 45.03275166764881, 0.0
4891, 44.65669466964879, 45.1150978954629, 0.0
4892, 46.35478875012826, 43.88162850168259, 0.0
4893, 47.51463445219572, 44.86805921202063, 0.0
4894, 46.56198785801341, 44.95040543983473, 0.0
4895, 86.85425304723765, 99.9327658524445, 0.0
4896, 88.04104126583104, 101.2325724308672, 0.0
4897, 86.88000948384678, 102.5373979679787, 0.0
4898, 85.69322126525338, 101.2375913895561, 0.0
4899, 86.86713126554221, 101.2350819102116, 0.0
4900, 89.20579853174735, 99.94929335120196, 0.0
4901, 90.3888612664087, 101.2275534721783, 0.0
4902, 89.22410400049239, 102.5108325518435, 0.0
4903, 89.21495126611987, 101.2300629515227, 0.0
4904, 90.4034412512217, 103.7675462153734, 0.0
4905, 89.24240946923743, 105.072371752485, 0.0
4906, 88.06307221850813, 103.815658088955, 0.0
4907, 89.23325673486491, 103.7916021521642, 0.0
4908, 86.9057659204559, 105.1420300835129, 0.0
4909, 85.72270318579456, 103.8637699625366, 0.0
4910, 86.89288770215134, 103.8397140257458, 0.0
4911, 76.8265951728224, 110.3745304366356, 0.0
4912, 77.84763442350274, 108.983160157312, 0.0
4913, 79.02341927455882, 109.9629922722742, 0.0
4914, 77.92500722369061, 110.1687613544549, 0.0
4915, 76.66389907298031, 108.047205579726, 0.0
4916, 77.69288882312702, 106.6119577630262, 0.0
4917, 78.87662417364945, 107.5479123406122, 0.0
4918, 77.77026162331488, 107.7975589601691, 0.0
4919, 79.91356442326251, 106.0687869865362, 0.0
4920, 81.08934927431858, 107.0486191014983, 0.0
4921, 80.05240902470553, 108.5277444555744, 0.0
4922, 79.98298672398403, 107.2982657210553, 0.0
4923, 81.22024337629523, 109.5514541079128, 0.0
4924, 80.12183132542702, 109.7572231900935, 0.0
4925, 62.87562838621592, 62.0349251155918, 0.0
4926, 63.91009937440026, 60.881226381684, 0.0
4927, 65.11519315149616, 62.25751635619913, 0.0
4928, 63.99541076885604, 62.14622073589545, 0.0
4929, 62.706437045697, 59.5015382274611, 0.0
4930, 63.73947658548869, 58.35123767326108, 0.0
4931, 64.94313891419195, 59.73092582748398, 0.0
4932, 63.82478797994447, 59.61623202747255, 0.0
4933, 65.97474700559098, 58.58402345299173, 0.0
4934, 67.17984078268688, 59.96031342750685, 0.0
4935, 66.14823269128786, 61.1072158019991, 0.0
4936, 66.06148984843944, 59.84561962749542, 0.0
4937, 67.35475791677639, 62.48010759680646, 0.0
4938, 66.23497553413628, 62.3688119765028, 0.0
4939, 43.70358087632425, 40.90426358511561, 0.0
4940, 43.16772810044849, 42.15648371458892, 0.0
4941, 41.16919624871693, 41.48731771885363, 0.0
4942, 42.43638856252059, 41.19579065198462, 0.0
4943, 46.23796550393156, 40.32120945137758, 0.0
4944, 45.43211171012803, 41.70236717939193, 0.0
4945, 44.97077319012791, 40.6127365182466, 0.0
4946, 46.89064152600402, 42.62940837220928, 0.0
4947, 44.89625893425227, 42.95458730886524, 0.0
4948, 45.89345023012814, 42.79199784053726, 0.0
4949, 42.90187634250051, 43.27976624552119, 0.0
4950, 43.89906763837639, 43.11717677719322, 0.0
4951, 50.6658140729111, 43.65989291171229, 0.0
4952, 49.23356585961209, 42.5302559420298, 0.0
4953, 50.14424197992113, 41.30146654216783, 0.0
4954, 51.57649019322015, 42.43110351185032, 0.0
4955, 50.40502802641611, 42.48067972694005, 0.0
4956, 48.36659104899721, 43.74230285898751, 0.0
4957, 47.7576163366189, 41.41736145525157, 0.0
4958, 48.06210369280805, 42.57983215711954, 0.0
4959, 47.1486416242406, 39.09242005151562, 0.0
4960, 48.66829245692794, 40.1885720553896, 0.0
4961, 47.45312898042975, 40.25489075338359, 0.0
4962, 49.62266988693116, 38.94304017262338, 0.0
4963, 51.09861940992434, 40.05593465940161, 0.0
4964, 49.88345593342614, 40.1222533573956, 0.0
4965, 49.90234430492028, 23.25232134693109, 0.0
4966, 51.19125109597881, 22.05472294163593, 0.0
4967, 52.46719262453792, 23.26989242096879, 0.0
4968, 51.17828583347939, 24.46749082626394, 0.0
4969, 51.1847684647291, 23.26110688394994, 0.0
4970, 49.92237045258606, 20.84099914305914, 0.0
4971, 51.20421635847822, 19.64195505700792, 0.0
4972, 52.47309700187097, 20.85567885558471, 0.0
4973, 51.19773372722852, 20.84833899932192, 0.0
4974, 53.74788202259677, 19.65518908877743, 0.0
4975, 55.02382355115587, 20.87035856811028, 0.0
4976, 53.74903853043008, 22.07084833491756, 0.0
4977, 53.74846027651343, 20.8630187118475, 0.0
4978, 55.03204094415555, 23.28746349500648, 0.0
4979, 53.75019503826339, 24.4865075810577, 0.0
4980, 53.74961678434673, 23.27867795798763, 0.0
4981, 70.96679613886687, 151.7818439988419, 0.0
4982, 69.72248820352596, 153.0726569573585, 0.0
4983, 68.57498334028038, 151.9067412419462, 0.0
4984, 69.81929127562128, 150.6159282834295, 0.0
4985, 69.77088973957362, 151.844292620394, 0.0
4986, 70.87945923571627, 154.2453321220859, 0.0
4987, 69.62568513143066, 155.5293856312874, 0.0
4988, 68.46871409924034, 154.35671046656, 0.0
4989, 69.6740866674783, 154.301021294323, 0.0
4990, 67.20547382601, 155.6340045264464, 0.0
4991, 66.05796896276442, 154.4680888110341, 0.0
4992, 67.32120923599476, 153.1907947511477, 0.0
4993, 67.26334153100238, 154.412399638797, 0.0
4994, 66.1831705416939, 152.0316384850505, 0.0
4995, 67.43694464597954, 150.747584975849, 0.0
4996, 67.37907694098715, 151.9691898634984, 0.0
4997, 45.208221565381, 150.6800660872698, 0.0
4998, 46.01325779098435, 149.7416853405129, 0.0
4999, 46.33937075021761, 150.6936184910586, 0.0
5000, 42.94592319570775, 150.6529612796922, 0.0
5001, 43.96521314901617, 149.6619679004187, 0.0
5002, 44.07707238054437, 150.666513683481, 0.0
5003, 42.93645846035642, 148.591257081051, 0.0
5004, 43.74149468595978, 147.6528763342941, 0.0
5005, 44.77024937461952, 148.7235871536618, 0.0
5006, 43.85335391748798, 148.6574221173564, 0.0
5007, 45.3610318725178, 147.8378190394216, 0.0
5008, 45.68714483175107, 148.7897521899672, 0.0
5009, 60.45504614854684, 164.3682323493574, 0.0
5010, 61.79610856535038, 163.1114845381238, 0.0
5011, 62.98205807262059, 164.3183665741452, 0.0
5012, 61.64099565581705, 165.5751143853788, 0.0
5013, 61.71855211058372, 164.3432994617513, 0.0
5014, 60.62123756433689, 161.9023283072327, 0.0
5015, 61.95122147488372, 160.6478546908688, 0.0
5016, 63.12609247589721, 161.8570109217599, 0.0
5017, 61.87366502011705, 161.8796696144963, 0.0
5018, 64.44499788018733, 160.6048115002657, 0.0
5019, 65.63094738745752, 161.8116935362871, 0.0
5020, 64.31204198316742, 163.0638929577813, 0.0
5021, 64.37851993167737, 161.8343522290235, 0.0
5022, 65.50906999669432, 164.2685007989331, 0.0
5023, 64.17908608614749, 165.522974415297, 0.0
5024, 64.24556403465745, 164.2934336865391, 0.0
5025, 45.60651649418516, 76.15242699977247, 0.0
5026, 46.59359616515378, 77.3346074720119, 0.0
5027, 45.0621800981976, 78.41258620735367, 0.0
5028, 45.33434829619138, 77.28250660356306, 0.0
5029, 47.03687839913778, 75.12267980651268, 0.0
5030, 45.87868469217894, 75.02234739598187, 0.0
5031, 49.35326581305546, 75.3233446275743, 0.0
5032, 48.0239580701064, 76.3048602787521, 0.0
5033, 48.19507210609662, 75.22301221704349, 0.0
5034, 49.11209190307861, 77.43880920890953, 0.0
5035, 47.68172999812599, 78.46855640216931, 0.0
5036, 47.8528440341162, 77.3867083404607, 0.0
5037, 54.75047871653019, 157.7908559066684, 0.0
5038, 53.92556366377525, 156.2666317300655, 0.0
5039, 55.41901511130393, 155.3590724927165, 0.0
5040, 55.08474691391706, 156.5749641996924, 0.0
5041, 54.08194232175643, 160.2226393206202, 0.0
5042, 53.03440864276543, 158.7152262850573, 0.0
5043, 54.41621051914331, 159.0067476136443, 0.0
5044, 51.09571994276462, 159.656407804486, 0.0
5045, 50.27080489000967, 158.1321836278832, 0.0
5046, 52.2094935900105, 157.1910021084544, 0.0
5047, 51.65260676638755, 158.4237049564702, 0.0
5048, 51.60719716349161, 155.6499667908117, 0.0
5049, 53.32326723725637, 154.7255964124228, 0.0
5050, 52.76638041363343, 155.9582992604387, 0.0
5051, 76.80972153152669, 44.64212949771003, 0.0
5052, 78.04600861268642, 45.92452695191721, 0.0
5053, 76.88943494157422, 47.11838617595956, 0.0
5054, 75.65314786041449, 45.83598872175239, 0.0
5055, 76.84957823655046, 45.88025783683479, 0.0
5056, 79.21058508105824, 44.72659358078768, 0.0
5057, 80.43886936495835, 46.01306518208203, 0.0
5058, 79.27429289658653, 47.21099855321156, 0.0
5059, 79.24243898882239, 45.96879606699962, 0.0
5060, 80.49457438322705, 48.50154430159309, 0.0
5061, 79.33800071211483, 49.69540352563544, 0.0
5062, 78.11771922547433, 48.40485777725392, 0.0
5063, 79.3061468043507, 48.4532010394235, 0.0
5064, 76.96914835162174, 49.59464285420909, 0.0
5065, 75.74086406772162, 48.30817125291474, 0.0
5066, 76.92929164659796, 48.35651451508433, 0.0
5067, 42.76393280638888, 141.3269651260712, 0.0
5068, 41.83187247770893, 139.9635177687387, 0.0
5069, 43.18701985939001, 139.3178639034564, 0.0
5070, 42.97547633288944, 140.3224145147638, 0.0
5071, 42.34084575338775, 143.336066348686, 0.0
5072, 41.40565567288368, 142.004761995699, 0.0
5073, 42.55238927988832, 142.3315157373785, 0.0
5074, 40.04424878755438, 142.7147018696724, 0.0
5075, 39.11218845887443, 141.3512545123399, 0.0
5076, 40.47359534420373, 140.6413146383665, 0.0
5077, 40.25892206587906, 141.6780082540195, 0.0
5078, 39.5446647673479, 139.2457242766885, 0.0
5079, 40.90294190085309, 138.5679274070607, 0.0
5080, 40.68826862252841, 139.6046210227136, 0.0
5081, 86.53054121015917, 49.91257284042094, 0.0
5082, 87.76087469711841, 51.17805235440401, 0.0
5083, 86.56766003526508, 52.40105511720476, 0.0
5084, 85.33732654830584, 51.13557560322168, 0.0
5085, 86.54910062271212, 51.15681397881284, 0.0
5086, 88.95930054256408, 49.95219996350053, 0.0
5087, 90.18442284593098, 51.22052910558634, 0.0
5088, 88.98599700048533, 52.44638149648982, 0.0
5089, 88.97264877152472, 51.19929072999518, 0.0
5090, 90.20590812025989, 53.71756026667836, 0.0
5091, 89.01269345840657, 54.94056302947911, 0.0
5092, 87.792782338632, 53.66938425929057, 0.0
5093, 88.99934522944594, 53.69347226298446, 0.0
5094, 86.604778860371, 54.88953739398858, 0.0
5095, 85.3796565570041, 53.62120825190277, 0.0
5096, 86.58621944781805, 53.64529625559668, 0.0
5097, 57.39901558939246, 67.05965944229197, 0.0
5098, 56.32655776971002, 65.63736289293819, 0.0
5099, 57.40215975534521, 64.6997685604087, 0.0
5100, 57.40058767236884, 65.87971400135032, 0.0
5101, 55.26261902950625, 66.5435369872179, 0.0
5102, 55.24243670459617, 64.24648658183418, 0.0
5103, 55.25252786705121, 65.39501178452605, 0.0
5104, 55.22225437968608, 61.94943617645042, 0.0
5105, 56.31803869023135, 63.30889224930468, 0.0
5106, 55.23234554214113, 63.09796137914229, 0.0
5107, 57.40530392129796, 62.33987767852541, 0.0
5108, 57.40373183832158, 63.51982311946706, 0.0
5109, 77.89449729232776, 125.3961564817557, 0.0
5110, 78.90019640759368, 126.6148774311842, 0.0
5111, 77.70713791552225, 127.8314757947657, 0.0
5112, 76.70143880025631, 126.6127548453373, 0.0
5113, 77.800817603925, 126.6138161382607, 0.0
5114, 80.06416601054606, 125.3870486250963, 0.0
5115, 81.09895401493105, 126.617000017031, 0.0
5116, 79.93498441197869, 127.8448288231189, 0.0
5117, 79.99957521126237, 126.6159387241076, 0.0
5118, 80.99886130548276, 129.0860106575599, 0.0
5119, 79.8058028134113, 130.3026090211414, 0.0
5120, 78.74192591990725, 129.0614271867004, 0.0
5121, 79.87039361269498, 129.0737189221302, 0.0
5122, 77.51977853871674, 130.2667951077757, 0.0
5123, 76.48499053433174, 129.0368437158409, 0.0
5124, 77.6134582271195, 129.0491354512707, 0.0
5125, 33.21196969673704, 165.5789721609448, 0.0
5126, 31.9135022955416, 164.3111524964451, 0.0
5127, 33.07518195974333, 163.1315833351045, 0.0
5128, 33.14357582824019, 164.3552777480247, 0.0
5129, 30.74176152505505, 165.4962331332848, 0.0
5130, 29.45335523014442, 164.2229019932858, 0.0
5131, 30.62509600063097, 163.037821356446, 0.0
5132, 30.68342876284301, 164.2670272448654, 0.0
5133, 29.34675081200515, 161.7589787409478, 0.0
5134, 30.50843047620688, 160.5794095796073, 0.0
5135, 31.7867756648327, 161.8582521951055, 0.0
5136, 30.56676323841893, 161.8086154680267, 0.0
5137, 32.93839422274963, 160.6841945092643, 0.0
5138, 33.00678809124648, 161.9078889221844, 0.0
5139, 39.10259484429245, 62.67310110112533, 0.0
5140, 39.6338978126569, 63.82333007832739, 0.0
5141, 38.38676038476685, 64.3001695826714, 0.0
5142, 38.74467761452966, 63.48663534189836, 0.0
5143, 39.81842930381806, 61.04603261957924, 0.0
5144, 40.16506007225765, 62.23448623326207, 0.0
5145, 39.46051207405526, 61.85956686035227, 0.0
5146, 41.04285310029797, 61.83409600187962, 0.0
5147, 41.57415606866242, 62.98432497908166, 0.0
5148, 40.69636304062209, 63.38471521046414, 0.0
5149, 40.86960807046003, 62.60940560617188, 0.0
5150, 41.41233820891141, 64.49671955118541, 0.0
5151, 40.34987298094622, 64.93533441904866, 0.0
5152, 40.52311801078415, 64.1600248147564, 0.0
5153, 41.06816691969541, 144.0705773372708, 0.0
5154, 39.81046227113334, 144.8718674555629, 0.0
5155, 39.92735552934387, 143.7932846626177, 0.0
5156, 43.34978970039852, 144.6251626865772, 0.0
5157, 42.07711086670618, 145.359673675162, 0.0
5158, 42.20897831004697, 144.347870011924, 0.0
5159, 43.07108062858669, 146.581990883346, 0.0
5160, 41.8133759800246, 147.3832810016381, 0.0
5161, 40.8194062181441, 146.1609637934541, 0.0
5162, 41.9452434233654, 146.3714773384, 0.0
5163, 39.57667575471228, 147.0290330414534, 0.0
5164, 39.69356901292281, 145.9504502485081, 0.0
5165, 71.83343542168245, 39.49975950075519, 0.0
5166, 73.09013520609128, 40.78064505786104, 0.0
5167, 71.93305118518919, 41.96441257764466, 0.0
5168, 70.67635140078036, 40.6835270205388, 0.0
5169, 71.88324330343582, 40.73208603919992, 0.0
5170, 74.25700876030481, 39.59128759459882, 0.0
5171, 75.50391901140222, 40.87776309518328, 0.0
5172, 74.3370454571887, 42.0671205584455, 0.0
5173, 74.29702710874673, 40.82920407652217, 0.0
5174, 75.57416617497469, 43.35918600250857, 0.0
5175, 74.41708215407257, 44.54295352229219, 0.0
5176, 73.17996143628659, 43.25088807822912, 0.0
5177, 74.37706380563063, 43.30503704036884, 0.0
5178, 72.03266694869592, 44.42906565453413, 0.0
5179, 70.7857566975985, 43.14259015394967, 0.0
5180, 71.98285906694255, 43.1967391160894, 0.0
5181, 49.62032775380501, 55.4913196246812, 0.0
5182, 50.5580258594414, 54.55431821829445, 0.0
5183, 51.70097814213077, 55.76333306306471, 0.0
5184, 50.76328003649438, 56.70033446945147, 0.0
5185, 50.66065294796789, 55.62732634387296, 0.0
5186, 49.42638931440248, 53.3790330882284, 0.0
5187, 50.35277168238841, 52.40830196713742, 0.0
5188, 51.48440822742732, 53.58358709720347, 0.0
5189, 50.4553987709149, 53.48131009271594, 0.0
5190, 52.39947485776281, 52.57912626140828, 0.0
5191, 53.54242714045218, 53.78814110617854, 0.0
5192, 52.62736051011669, 54.79260194197374, 0.0
5193, 52.51341768393975, 53.68586410169101, 0.0
5194, 53.78162853045651, 56.03534650144822, 0.0
5195, 52.85524616247058, 57.00607762253919, 0.0
5196, 52.74130333629363, 55.89933978225647, 0.0
5197, 8.538387516893895, 57.46505040007791, 0.0
5198, 7.331539790463217, 56.21309775054586, 0.0
5199, 8.552661862231403, 54.94423432220778, 0.0
5200, 8.545524689562649, 56.20464236114285, 0.0
5201, 8.524113171556387, 59.98586647794804, 0.0
5202, 7.320099060621808, 58.73136475043086, 0.0
5203, 8.53125034422514, 58.72545843901298, 0.0
5204, 6.10464421984582, 59.99513002279868, 0.0
5205, 4.897796493415142, 58.74317737326663, 0.0
5206, 6.11325133419113, 57.47941210089881, 0.0
5207, 6.108947777018475, 58.73727106184874, 0.0
5208, 4.903569992264351, 56.23000852935189, 0.0
5209, 6.121858448536438, 54.96369417899895, 0.0
5210, 6.117554891363784, 56.22155313994888, 0.0
5211, 50.10078371769511, 32.8572453907864, 0.0
5212, 51.33443806241874, 31.67168306223635, 0.0
5213, 52.69839973906343, 32.88726803343065, 0.0
5214, 51.46474539433979, 34.07283036198071, 0.0
5215, 51.39959172837926, 32.87225671210853, 0.0
5216, 49.96789825005746, 30.45642333981348, 0.0
5217, 51.20413073049771, 29.27053576249199, 0.0
5218, 52.57067054285899, 30.48579548491485, 0.0
5219, 51.26928439645823, 30.47110941236417, 0.0
5220, 53.80948115901585, 29.29958265882193, 0.0
5221, 55.17344283566052, 30.51516763001623, 0.0
5222, 53.93463221950367, 31.70138045610916, 0.0
5223, 53.87205668925975, 30.50048155746554, 0.0
5224, 55.29601576043174, 32.9172906760749, 0.0
5225, 54.05978327999151, 34.10317825339639, 0.0
5226, 53.99720774974759, 32.90227935475278, 0.0
5227, 50.39846398135463, 89.06200555646043, 0.0
5228, 51.72398718132911, 88.35874979480496, 0.0
5229, 52.30097481196196, 89.39281783670768, 0.0
5230, 51.35207929317575, 89.20345126412653, 0.0
5231, 51.19539194406389, 87.1860166693813, 0.0
5232, 52.47252275067072, 86.62142599124681, 0.0
5233, 53.00111798793593, 87.79415911667047, 0.0
5234, 52.09825496599991, 87.49008789302589, 0.0
5235, 54.22985640117513, 87.36823352205693, 0.0
5236, 54.78810100243953, 88.49652913502504, 0.0
5237, 53.55936258920033, 88.92245472963859, 0.0
5238, 53.89460949518774, 88.14534412584776, 0.0
5239, 54.14725655446393, 90.00631283015117, 0.0
5240, 53.231104683212, 89.67652568686793, 0.0
5241, 24.71915628211652, 74.08865342266543, 0.0
5242, 24.39571981138995, 72.72753297789052, 0.0
5243, 25.75241610062424, 72.30466797037836, 0.0
5244, 25.23578619137038, 73.19666069652189, 0.0
5245, 23.68589646360881, 75.8726388749525, 0.0
5246, 23.54758939805739, 74.45321759559137, 0.0
5247, 24.20252637286266, 74.98064614880896, 0.0
5248, 22.56115191917342, 74.75948093393112, 0.0
5249, 22.23771544844684, 73.3983604891562, 0.0
5250, 23.22415292733081, 73.09209715081646, 0.0
5251, 22.89265242325212, 73.92578904237378, 0.0
5252, 22.71558705142908, 71.78927754062775, 0.0
5253, 23.88715393548821, 71.42471336770181, 0.0
5254, 23.55565343140951, 72.25840525925913, 0.0
5255, 75.53812808751684, 127.7453501488654, 0.0
5256, 74.62445277752218, 126.4942292313484, 0.0
5257, 75.66294578888925, 126.5534920383429, 0.0
5258, 75.28849268477198, 130.1290663699106, 0.0
5259, 74.34163023795708, 128.837572802935, 0.0
5260, 75.41331038614442, 128.937208259388, 0.0
5261, 73.11194525157704, 129.8894228075461, 0.0
5262, 72.1982699415824, 128.6383018900291, 0.0
5263, 73.42795492796242, 127.586451885418, 0.0
5264, 73.26995008976974, 128.7379373464821, 0.0
5265, 72.54746675478805, 126.3757036173596, 0.0
5266, 73.58595976615511, 126.434966424354, 0.0
5267, 56.04249124301869, 144.2762385823388, 0.0
5268, 54.94340919771422, 143.014622627915, 0.0
5269, 56.11146196761545, 141.709811055042, 0.0
5270, 56.07697660531706, 142.9930248186904, 0.0
5271, 55.97352051842194, 146.8426661096356, 0.0
5272, 54.76328774769387, 145.6719007200211, 0.0
5273, 56.0080058807203, 145.5594523459872, 0.0
5274, 53.37293352694545, 147.1584134225126, 0.0
5275, 52.27385148164098, 145.8967974680888, 0.0
5276, 53.6642057023894, 144.4102847655972, 0.0
5277, 53.51856961466742, 145.7843490940549, 0.0
5278, 52.67627438250855, 143.0578182463641, 0.0
5279, 53.95547787783337, 141.6621561086819, 0.0
5280, 53.80984179011138, 143.0362204371395, 0.0
5281, 28.96742570323917, 151.9134018507423, 0.0
5282, 27.81901081500142, 153.0863198897413, 0.0
5283, 26.59882393866658, 151.8017985878949, 0.0
5284, 27.74723882690432, 150.628880548896, 0.0
5285, 27.78312482095287, 151.8576002193187, 0.0
5286, 29.04304565862754, 154.3676122654207, 0.0
5287, 27.89078280309852, 155.5437592305865, 0.0
5288, 26.66674795947241, 154.2624668549071, 0.0
5289, 27.85489680904997, 154.3150395601639, 0.0
5290, 25.51063713665212, 155.4418427462399, 0.0
5291, 24.29045026031727, 154.1573214443936, 0.0
5292, 25.44656108313756, 152.9779455530608, 0.0
5293, 25.47859910989484, 154.2098941496504, 0.0
5294, 24.23022217409399, 151.6901953250475, 0.0
5295, 25.38248502962301, 150.5140483598817, 0.0
5296, 25.41452305638028, 151.7459969564712, 0.0
5297, 39.78634863147612, 171.8376803312377, 0.0
5298, 38.56154206637588, 173.0262182535196, 0.0
5299, 37.25535299794258, 171.7844282126589, 0.0
5300, 38.52085081470935, 171.8110542719483, 0.0
5301, 39.86839878308076, 174.2649563731732, 0.0
5302, 38.64292456970892, 175.4565462166623, 0.0
5303, 37.33606785300405, 174.2178080970087, 0.0
5304, 38.60223331804239, 174.241382235091, 0.0
5305, 36.10992599136063, 175.4124498617051, 0.0
5306, 34.80373692292733, 174.1706598208443, 0.0
5307, 36.02987878457076, 172.976018056148, 0.0
5308, 36.06990238796568, 174.1942339589265, 0.0
5309, 34.72435736440905, 171.7311760940801, 0.0
5310, 35.98985518117583, 171.7578021533695, 0.0
5311, 49.91574177768383, 68.93404218799233, 0.0
5312, 50.97029409010489, 67.99692167747435, 0.0
5313, 51.9925085888882, 69.24264508719767, 0.0
5314, 50.93795627646715, 70.17976559771566, 0.0
5315, 50.95412518328602, 69.08834363759499, 0.0
5316, 49.93104878487402, 66.74931078916441, 0.0
5317, 52.04187720897349, 67.061688645543, 0.0
5318, 50.98646299692376, 66.9054997173537, 0.0
5319, 54.15270563307296, 67.37406650192159, 0.0
5320, 53.0640917077568, 68.30741205526633, 0.0
5321, 53.09729142102322, 67.2178775737323, 0.0
5322, 54.06927540009255, 69.55124798640304, 0.0
5323, 52.99769228122395, 70.48648101833439, 0.0
5324, 53.03089199449037, 69.39694653680036, 0.0
5325, 39.82396478464599, 18.47027555381533, 0.0
5326, 41.10804704507537, 17.24322143635811, 0.0
5327, 42.34698431162941, 18.45119948873522, 0.0
5328, 41.06290205120003, 19.67825360619244, 0.0
5329, 41.0854745481377, 18.46073752127527, 0.0
5330, 39.87222202216693, 16.03322570761212, 0.0
5331, 41.15319203895071, 14.80818926652378, 0.0
5332, 42.38901706185916, 16.01818499526977, 0.0
5333, 41.13061954201304, 16.02570535144094, 0.0
5334, 43.66687483499735, 14.7951662305503, 0.0
5335, 44.90581210155139, 16.00314428292742, 0.0
5336, 43.6279543284132, 17.22616304764688, 0.0
5337, 43.64741458170527, 16.01066463909859, 0.0
5338, 44.87000383861283, 18.43212342365512, 0.0
5339, 43.58903382182904, 19.65715986474347, 0.0
5340, 43.60849407512111, 18.44166145619517, 0.0
5341, 43.77479657269134, 91.26027571148396, 0.0
5342, 43.92623053953647, 90.2546631418904, 0.0
5343, 45.46016565917589, 90.21764169609176, 0.0
5344, 44.60613159255874, 90.71772524550434, 0.0
5345, 42.24955438591032, 92.54255655279928, 0.0
5346, 42.33773600909982, 91.49571424929516, 0.0
5347, 42.99690159409519, 91.88280484932878, 0.0
5348, 40.89079873508718, 91.76980532850354, 0.0
5349, 40.9888570686978, 90.68431048360229, 0.0
5350, 42.43579434271044, 90.41021940439391, 0.0
5351, 41.66329653889881, 91.09001236644872, 0.0
5352, 42.54372938674217, 89.28607201809551, 0.0
5353, 44.0341655835682, 89.130515755592, 0.0
5354, 43.23497996313932, 89.77036757999295, 0.0
5355, 31.89156863893139, 88.72219762832185, 0.0
5356, 30.12850326684651, 89.2304594820535, 0.0
5357, 29.71567436305288, 87.64809838682102, 0.0
5358, 31.47873973513775, 87.13983653308935, 0.0
5359, 30.80362150099213, 88.18514800757143, 0.0
5360, 30.69975582638724, 90.81564504050851, 0.0
5361, 28.77826679855528, 91.32108243101766, 0.0
5362, 28.20701423901455, 89.73589687256263, 0.0
5363, 29.4533850327009, 90.27577095653558, 0.0
5364, 26.1271015554355, 90.23850979984923, 0.0
5365, 25.71427265164186, 88.65614870461673, 0.0
5366, 27.79418533522092, 88.15353577733015, 0.0
5367, 26.96064344532821, 89.19602278858969, 0.0
5368, 27.53978008717436, 86.57399914532019, 0.0
5369, 29.46126911500633, 86.06856175481106, 0.0
5370, 28.62772722511362, 87.1110487660706, 0.0
5371, 19.79336761304934, 72.55334521695832, 0.0
5372, 20.57551348388135, 73.54076727041523, 0.0
5373, 19.69545739014787, 74.67059610513114, 0.0
5374, 19.74441250159861, 73.61197066104474, 0.0
5375, 19.89127783595081, 70.4360943287855, 0.0
5376, 20.80007750014308, 71.5929056954572, 0.0
5377, 19.84232272450008, 71.49471977287192, 0.0
5378, 21.93344118059707, 70.80185548717085, 0.0
5379, 21.58222337097509, 72.5803277489141, 0.0
5380, 21.75783227578608, 71.69109161804246, 0.0
5381, 21.23100556135311, 74.35880001065732, 0.0
5382, 21.4066144661641, 73.46956387978571, 0.0
5383, 8.736203642656404, 100.2028242018785, 0.0
5384, 7.453585241151335, 98.88987227260085, 0.0
5385, 8.699104574164526, 97.64710788367084, 0.0
5386, 8.717654108410466, 98.92496604277466, 0.0
5387, 6.197818638184808, 100.1191134506374, 0.0
5388, 4.925447506633075, 98.81968473225325, 0.0
5389, 6.181214109599602, 97.59044355421668, 0.0
5390, 6.189516373892205, 98.85477850242705, 0.0
5391, 4.919090248001206, 96.30453804672594, 0.0
5392, 6.164609581014396, 95.06177365779592, 0.0
5393, 7.426733442612791, 96.34767916528666, 0.0
5394, 6.172911845306999, 96.3261086060063, 0.0
5395, 8.662005505672644, 95.0913915654632, 0.0
5396, 8.680555039918584, 96.36924972456703, 0.0
5397, 60.25654336045247, 139.1522575409566, 0.0
5398, 59.08857387195141, 137.9785781990916, 0.0
5399, 60.15116507306735, 137.9601896131849, 0.0
5400, 59.27931437575089, 140.3942872488577, 0.0
5401, 60.36192164783758, 140.3443254687283, 0.0
5402, 57.1140998315775, 140.4942108091163, 0.0
5403, 58.11134488724983, 139.2206079069927, 0.0
5404, 58.1967071036642, 140.444249028987, 0.0
5405, 56.96339146971952, 138.015355370905, 0.0
5406, 58.02598267083547, 137.9969667849983, 0.0
5407, 34.68159561626675, 23.39481425876981, 0.0
5408, 35.9712567082174, 22.16070996849018, 0.0
5409, 37.19293543548255, 23.35533908130171, 0.0
5410, 35.9032743435319, 24.58944337158134, 0.0
5411, 35.93726552587464, 23.37507667003576, 0.0
5412, 34.75100301113915, 20.96251714951864, 0.0
5413, 36.03923907290289, 19.73197656539902, 0.0
5414, 37.25949276998114, 20.93016938437056, 0.0
5415, 36.00524789056015, 20.9463432669446, 0.0
5416, 38.54630380155798, 19.70319250641096, 0.0
5417, 39.76798252882314, 20.89782161922249, 0.0
5418, 38.48117149724629, 22.1247984971821, 0.0
5419, 38.51373764940213, 20.91399550179653, 0.0
5420, 39.70427525469835, 23.31586390383362, 0.0
5421, 38.4160391929346, 24.54640448795323, 0.0
5422, 38.44860534509045, 23.33560149256767, 0.0
5423, 52.52631768141171, 148.2982179224068, 0.0
5424, 52.25739063100874, 150.2153185870733, 0.0
5425, 50.76149291253745, 150.3125154061635, 0.0
5426, 51.64390529697458, 149.3053666642852, 0.0
5427, 53.43367298182072, 150.2620796093183, 0.0
5428, 53.48436129907707, 152.0352224326495, 0.0
5429, 52.30807894826508, 151.9884614104045, 0.0
5430, 52.87087596504291, 151.1252705098614, 0.0
5431, 52.67838263318075, 153.6176463924005, 0.0
5432, 51.18248491470945, 153.7148432114907, 0.0
5433, 50.81218122979379, 152.0856582294947, 0.0
5434, 51.74528193148727, 152.8516523109476, 0.0
5435, 48.99666814366319, 152.3268128899201, 0.0
5436, 49.87908052810032, 151.3196641480418, 0.0
5437, 81.77673312842528, 147.6523364077117, 0.0
5438, 82.95539356488332, 148.8707176223413, 0.0
5439, 81.73692436326834, 150.1404807217865, 0.0
5440, 81.75682874584682, 148.8964085647491, 0.0
5441, 81.81654189358221, 145.1641920936369, 0.0
5442, 82.99240896553162, 146.381609003419, 0.0
5443, 81.79663751100374, 146.4082642506743, 0.0
5444, 84.20529143812934, 145.1099172942788, 0.0
5445, 85.38395187458738, 146.3282985089084, 0.0
5446, 84.17106940198966, 147.5999902180486, 0.0
5447, 84.1881804200595, 146.3549537561638, 0.0
5448, 85.35252320295632, 148.8193357375256, 0.0
5449, 84.13684736584999, 150.0900631418183, 0.0
5450, 84.15395838391981, 148.8450266799335, 0.0
5451, 22.83160685159775, 140.4477978399349, 0.0
5452, 21.62606661198764, 139.14806958881, 0.0
5453, 22.77226986007246, 137.9138765411747, 0.0
5454, 23.97781009968256, 139.2136047922996, 0.0
5455, 22.8019383558351, 139.1808371905548, 0.0
5456, 20.47289364628133, 140.3754488388181, 0.0
5457, 19.27432312429272, 139.0825343853205, 0.0
5458, 20.42749608999904, 137.8551551353123, 0.0
5459, 20.45019486814018, 139.1153019870653, 0.0
5460, 19.23589528563194, 136.5690544794419, 0.0
5461, 20.38209853371675, 135.3348614318066, 0.0
5462, 21.57369933808385, 136.620962087677, 0.0
5463, 20.4047973118579, 136.5950082835595, 0.0
5464, 22.71293286854716, 135.3799552424146, 0.0
5465, 23.91150339053576, 136.6728696959122, 0.0
5466, 22.74260136430981, 136.6469158917947, 0.0
5467, 32.15710039117819, 82.39258361064772, 0.0
5468, 32.41631570157089, 83.82053211027488, 0.0
5469, 30.80918475309226, 84.23057268272939, 0.0
5470, 31.48314257213523, 83.31157814668856, 0.0
5471, 33.97307186296283, 83.39270258745181, 0.0
5472, 34.28266196044223, 84.83844003744751, 0.0
5473, 32.7259057990503, 85.26626956027059, 0.0
5474, 33.34948883100657, 84.32948607386119, 0.0
5475, 33.08587068361639, 86.72979596063485, 0.0
5476, 31.11877485057166, 85.6763101327251, 0.0
5477, 32.10232276709402, 86.20305304667997, 0.0
5478, 30.1352269340493, 85.14956721877023, 0.0
5479, 82.19870137042031, 89.80711384927334, 0.0
5480, 83.34896374093152, 91.03134878419203, 0.0
5481, 82.2081798584824, 92.22873463107608, 0.0
5482, 81.05791748797117, 91.00449969615738, 0.0
5483, 82.20344061445135, 91.01792424017471, 0.0
5484, 84.49050179152366, 89.80995862723496, 0.0
5485, 85.64000999389187, 91.05819787222666, 0.0
5486, 84.49847194329973, 92.27958802918373, 0.0
5487, 84.4944868674117, 91.04477332820935, 0.0
5488, 85.64722597752495, 93.55183158424845, 0.0
5489, 84.50644209507581, 94.7492174311325, 0.0
5490, 83.3576880608506, 93.47697387606777, 0.0
5491, 84.50245701918777, 93.51440273015811, 0.0
5492, 82.21765834654448, 94.65035541287882, 0.0
5493, 81.06815014417627, 93.40211616788713, 0.0
5494, 82.21291910251344, 93.43954502197745, 0.0
5495, 19.58278755977884, 41.03142115605203, 0.0
5496, 18.35472048416448, 42.30603053201764, 0.0
5497, 17.16573541848601, 41.0861543882822, 0.0
5498, 18.39380249410036, 39.81154501231659, 0.0
5499, 18.37426148913242, 41.05878777216711, 0.0
5500, 19.54013945140978, 43.52708598508383, 0.0
5501, 18.31563847422859, 44.80051605171872, 0.0
5502, 17.13021950698329, 43.57946059865253, 0.0
5503, 18.33517947919654, 43.55327329186818, 0.0
5504, 15.90928462823528, 44.8517113559567, 0.0
5505, 14.72029956255681, 43.63183521222125, 0.0
5506, 15.94123444130483, 42.35958445491708, 0.0
5507, 15.92525953477005, 43.60564790543689, 0.0
5508, 14.74868327719318, 41.14088762051236, 0.0
5509, 15.97318425437437, 39.86745755387747, 0.0
5510, 15.9572093478396, 41.11352100439727, 0.0
5511, 21.39457251642564, 117.0499552112496, 0.0
5512, 20.23999660887713, 118.1382555121844, 0.0
5513, 19.12396835920007, 116.8776637116977, 0.0
5514, 20.25927043781285, 116.9638094614737, 0.0
5515, 22.50139358227202, 118.2892346984481, 0.0
5516, 22.52987459503842, 117.1361009610255, 0.0
5517, 22.4444315567392, 120.5955021732933, 0.0
5518, 21.34681767472351, 119.3775349993829, 0.0
5519, 22.47291256950561, 119.4423684358707, 0.0
5520, 20.20144895100569, 120.4871476136059, 0.0
5521, 19.09462788515931, 119.2478681264074, 0.0
5522, 20.22072277994141, 119.3127015628951, 0.0
5523, 8.47180551067535, 80.1583010138634, 0.0
5524, 7.263335018949869, 78.8802429668978, 0.0
5525, 8.463953510760755, 77.65139843452255, 0.0
5526, 9.672424002486236, 78.92945648148816, 0.0
5527, 8.467879510718053, 78.90484972419299, 0.0
5528, 6.061005369467923, 80.1067719890641, 0.0
5529, 4.854246035413501, 78.83102945230745, 0.0
5530, 6.056575684895447, 77.60450043014114, 0.0
5531, 6.058790527181685, 78.85563620960262, 0.0
5532, 4.851527508512084, 76.33107340359346, 0.0
5533, 6.052146000322969, 75.10222887121822, 0.0
5534, 7.257194176706331, 76.37565589776591, 0.0
5535, 6.054360842609208, 76.35336465067968, 0.0
5536, 8.456101510846157, 75.1444958551817, 0.0
5537, 9.662860844900578, 76.42023839193834, 0.0
5538, 8.460027510803457, 76.39794714485213, 0.0
5539, 61.60458219278112, 149.9042093003659, 0.0
5540, 62.80940718947309, 148.6211533777671, 0.0
5541, 63.93826228687368, 149.7485746379494, 0.0
5542, 62.73343729018171, 151.0316305605482, 0.0
5543, 62.7714222398274, 149.8263919691577, 0.0
5544, 61.68842802529792, 147.5038886210083, 0.0
5545, 62.88537708876447, 146.210676194986, 0.0
5546, 64.00635625293965, 147.3279409517447, 0.0
5547, 62.84739213911877, 147.4159147863765, 0.0
5548, 65.1954293831808, 146.0245720222989, 0.0
5549, 66.32428448058138, 147.1519932824812, 0.0
5550, 65.13521135034024, 148.455362211927, 0.0
5551, 65.16532036676053, 147.2399671171129, 0.0
5552, 66.27194238096624, 149.5929399755329, 0.0
5553, 65.07499331749966, 150.8861524015552, 0.0
5554, 65.10510233391994, 149.6707573067411, 0.0
5555, 16.96376814321857, 100.0788183273487, 0.0
5556, 18.69765200906196, 100.3034684910856, 0.0
5557, 18.45146541587044, 101.4622720041563, 0.0
5558, 16.71758155002705, 101.2376218404194, 0.0
5559, 17.70761677954451, 100.7705451657525, 0.0
5560, 19.1584668637075, 99.04787830351988, 0.0
5561, 20.67772246809687, 99.36931514175184, 0.0
5562, 20.21690761345134, 100.6249053293176, 0.0
5563, 19.68768723857942, 99.83639181641873, 0.0
5564, 21.5215349563867, 101.0431288420446, 0.0
5565, 19.97072102025982, 101.7837088423883, 0.0
5566, 20.74612798832326, 101.4134188422165, 0.0
5567, 18.41990708413293, 102.524288842732, 0.0
5568, 19.19531405219637, 102.1539988425602, 0.0
5569, 13.27244250832284, 115.3242612113224, 0.0
5570, 12.09529523973656, 114.0616308270094, 0.0
5571, 13.30169900568363, 112.9242647316816, 0.0
5572, 14.47884627426991, 114.1868951159945, 0.0
5573, 13.28707075700324, 114.124262971502, 0.0
5574, 10.89150612951446, 115.2128354501162, 0.0
5575, 9.711744205203201, 113.9363665380243, 0.0
5576, 10.9155333154253, 112.7851619149176, 0.0
5577, 10.90351972246988, 113.9989986825169, 0.0
5578, 9.733156735389077, 111.4948544750469, 0.0
5579, 10.93956050133615, 110.3574883797191, 0.0
5580, 12.12193708137238, 111.6477958195898, 0.0
5581, 10.92754690838073, 111.5713251473184, 0.0
5582, 13.33095550304443, 110.5242682520408, 0.0
5583, 14.51071742735568, 111.8007371641326, 0.0
5584, 13.31632725436403, 111.7242664918612, 0.0
5585, 74.07932227760509, 116.5732900169934, 0.0
5586, 75.08497364503599, 117.5087447564987, 0.0
5587, 74.09872820683441, 118.6902326656765, 0.0
5588, 73.09307683940351, 117.7547779261712, 0.0
5589, 74.08902524221975, 117.631761341335, 0.0
5590, 76.08071324907297, 116.2681851459258, 0.0
5591, 77.07687045066847, 117.2627115868261, 0.0
5592, 76.08113084663148, 118.503271197399, 0.0
5593, 76.08092204785223, 117.3857281716624, 0.0
5594, 77.06779388239158, 119.5568693396943, 0.0
5595, 75.0948854084299, 119.6847591065767, 0.0
5596, 76.08133964541075, 119.6208142231355, 0.0
5597, 73.12197693446822, 119.8126488734592, 0.0
5598, 74.10843117144907, 119.748703990018, 0.0
5599, 84.66262171497682, 112.9385657575101, 0.0
5600, 83.54154508758246, 111.805066834567, 0.0
5601, 84.66414020402244, 110.458874526586, 0.0
5602, 84.66338095949963, 111.698720142048, 0.0
5603, 84.66110322593121, 115.4182569884341, 0.0
5604, 83.54865470586178, 114.2681200608398, 0.0
5605, 84.66186247045401, 114.1784113729721, 0.0
5606, 82.44331580407166, 115.5810363595182, 0.0
5607, 82.42757807846742, 113.1346211378967, 0.0
5608, 82.43544694126953, 114.3578287487074, 0.0
5609, 82.41184035286318, 110.6882059162753, 0.0
5610, 82.4197092156653, 111.911413527086, 0.0
5611, 91.58644381770732, 102.4964170021811, 0.0
5612, 92.77988686198827, 103.757423224779, 0.0
5613, 91.59688429550263, 105.0285524379713, 0.0
5614, 91.59166405660497, 103.7624847200762, 0.0
5615, 91.576003339912, 99.96428156639087, 0.0
5616, 92.77358589121062, 101.2331450963937, 0.0
5617, 91.58122357880967, 101.230349284286, 0.0
5618, 93.9648674717316, 99.97773049801128, 0.0
5619, 95.15831051601256, 101.2387367206092, 0.0
5620, 93.96702893549158, 102.4941513189916, 0.0
5621, 93.96594820361159, 101.2359409085014, 0.0
5622, 95.15633247275488, 103.7473002341845, 0.0
5623, 93.96919039925157, 105.0105721399719, 0.0
5624, 93.96810966737158, 103.7523617294817, 0.0
5625, 68.22239649148281, 127.9284994067786, 0.0
5626, 69.40205847543135, 127.0296909660882, 0.0
5627, 70.2103332165326, 128.2834006484038, 0.0
5628, 69.03067123258408, 129.1822090890942, 0.0
5629, 69.21636485400771, 128.1059500275912, 0.0
5630, 68.60118054421062, 125.8126746669937, 0.0
5631, 69.7734457182786, 124.8771728430821, 0.0
5632, 70.57432364949933, 126.0941891421766, 0.0
5633, 69.58775209685498, 125.9534319045851, 0.0
5634, 71.73919201368679, 125.1219939350439, 0.0
5635, 71.3825983906006, 127.3478988244923, 0.0
5636, 71.56089520214371, 126.2349463797681, 0.0
5637, 71.02600476751441, 129.5738037139407, 0.0
5638, 71.2043015790575, 128.4608512692165, 0.0
5639, 49.77704867271422, 59.93452200443728, 0.0
5640, 50.82184343402604, 58.96827230350754, 0.0
5641, 51.9252015928695, 60.26996043663387, 0.0
5642, 50.85112513279186, 60.10224122053557, 0.0
5643, 49.7372142065756, 57.67648259675083, 0.0
5644, 51.84790926394481, 57.99212417620818, 0.0
5645, 50.79256173526021, 57.8343033864795, 0.0
5646, 53.95860432131404, 58.30776575566553, 0.0
5647, 52.95126742278828, 59.29381230933451, 0.0
5648, 52.90325679262943, 58.14994496593685, 0.0
5649, 54.07335451302478, 60.60539886883046, 0.0
5650, 52.99927805294715, 60.43767965273216, 0.0
5651, 62.87257386293026, 166.776519375353, 0.0
5652, 61.56615203810271, 168.0306768271712, 0.0
5653, 61.60357384695989, 166.802895606275, 0.0
5654, 65.41057389487102, 166.7237669135092, 0.0
5655, 64.10406167165378, 167.9773118735652, 0.0
5656, 64.14157387890064, 166.7501431444311, 0.0
5657, 65.33545908198761, 169.1774918800154, 0.0
5658, 64.02903725716007, 170.4316493318335, 0.0
5659, 62.79763984682624, 169.2314693253834, 0.0
5660, 64.06654946440692, 169.2044806026994, 0.0
5661, 61.49130842038838, 170.4862392689636, 0.0
5662, 61.52873022924555, 169.2584580480674, 0.0
5663, 63.87577500746831, 142.4717666046562, 0.0
5664, 62.78789208790597, 143.7871195448064, 0.0
5665, 62.73914958747672, 142.5753412197166, 0.0
5666, 66.14902584745147, 142.2646173745354, 0.0
5667, 65.07341007936685, 143.5869853338302, 0.0
5668, 65.01240042745988, 142.3681919895958, 0.0
5669, 66.28331230274313, 144.7092190821487, 0.0
5670, 63.98552715980453, 144.9023382739803, 0.0
5671, 65.13441973127382, 144.8057786780645, 0.0
5672, 62.83663458833523, 144.9988978698962, 0.0
5673, 63.93900874055502, 24.6357327608502, 0.0
5674, 62.65634039317055, 23.39550288954336, 0.0
5675, 63.89986949023464, 22.19693215418518, 0.0
5676, 65.18253783761912, 23.43716202549201, 0.0
5677, 63.91943911539483, 23.41633245751769, 0.0
5678, 61.40943355626341, 24.59074076127651, 0.0
5679, 60.13014294872197, 23.35384375359471, 0.0
5680, 61.3770497856291, 22.15860588186156, 0.0
5681, 61.39324167094626, 23.37467332156904, 0.0
5682, 60.1011369179307, 20.9250417378048, 0.0
5683, 61.3446660149948, 19.72647100244661, 0.0
5684, 62.6205788826932, 20.96003514650338, 0.0
5685, 61.36085790031195, 20.94253844215408, 0.0
5686, 63.86073023991426, 19.75813154752016, 0.0
5687, 65.1400208474557, 20.99502855520196, 0.0
5688, 63.88029986507446, 20.97753185085266, 0.0
5689, 30.07057465538449, 145.870606121844, 0.0
5690, 31.2798708264059, 147.1982403528507, 0.0
5691, 30.09175196451369, 148.3178417295363, 0.0
5692, 28.88245579349228, 146.9902074985296, 0.0
5693, 30.08116330994909, 147.0942239256902, 0.0
5694, 32.47825233387071, 146.0954627983887, 0.0
5695, 33.67728585931953, 147.4062732071719, 0.0
5696, 32.47890435185471, 148.5090507616339, 0.0
5697, 32.47857834286271, 147.3022567800113, 0.0
5698, 33.6676752317309, 149.8030373481937, 0.0
5699, 32.47955636983869, 150.9226387248792, 0.0
5700, 31.2907854899625, 149.6286521383195, 0.0
5701, 32.4792303608467, 149.7158447432566, 0.0
5702, 30.11292927364288, 150.7650773372285, 0.0
5703, 28.91389574819408, 149.4542669284453, 0.0
5704, 30.10234061907828, 149.5414595333824, 0.0
5705, 86.3699908729034, 34.92384958124147, 0.0
5706, 87.61291185099891, 36.18825393308025, 0.0
5707, 86.39099517310626, 37.42280402978311, 0.0
5708, 85.14807419501075, 36.15839967794433, 0.0
5709, 86.38049302300485, 36.17332680551229, 0.0
5710, 88.83743951144795, 34.95256886573981, 0.0
5711, 90.07774950698705, 36.21810818821618, 0.0
5712, 88.853221846538, 37.45379325555662, 0.0
5713, 88.84533067899298, 36.20318106064821, 0.0
5714, 90.0909208595207, 38.72046754867058, 0.0
5715, 88.86900418162804, 39.95501764537345, 0.0
5716, 87.63130516864535, 38.68834335225948, 0.0
5717, 88.86111301408302, 38.70440545046503, 0.0
5718, 86.4119994733091, 39.92175847832473, 0.0
5719, 85.17168947776999, 38.65621915584836, 0.0
5720, 86.40149732320768, 38.67228125405392, 0.0
5721, 13.24455883749964, 75.1712198048319, 0.0
5722, 12.03976720490142, 73.91053998904796, 0.0
5723, 13.21645889257663, 72.6575994010596, 0.0
5724, 13.23050886503814, 73.91440960294577, 0.0
5725, 10.85357245657172, 75.16749283305293, 0.0
5726, 9.658283884628005, 73.90280076125238, 0.0
5727, 10.84447863295771, 72.64584791724741, 0.0
5728, 10.84902554476471, 73.90667037515017, 0.0
5729, 9.658693121668513, 71.37714358943026, 0.0
5730, 10.83538480934371, 70.12420300144188, 0.0
5731, 12.02117032063291, 71.39290732925905, 0.0
5732, 10.83993172115071, 71.38502545934463, 0.0
5733, 13.18835894765361, 70.14397899728729, 0.0
5734, 13.20240892011512, 71.40078919917345, 0.0
5735, 17.43519222671177, 102.9465176020199, 0.0
5736, 16.30865468374457, 103.6231492307995, 0.0
5737, 15.59104400705986, 101.914253469199, 0.0
5738, 16.51311811688581, 102.4303855356094, 0.0
5739, 18.29462558894252, 104.4010104941288, 0.0
5740, 18.35726633653773, 103.4626496684304, 0.0
5741, 18.1693440937521, 106.2777321455256, 0.0
5742, 17.16808804597532, 105.0776421229083, 0.0
5743, 18.23198484134731, 105.3393713198272, 0.0
5744, 15.8997278174621, 106.0086766211795, 0.0
5745, 15.04029445523135, 104.5541837290707, 0.0
5746, 16.10419125060334, 104.8159129259895, 0.0
5747, 75.5354792780769, 159.0272260471296, 0.0
5748, 76.77711336615099, 157.755851952566, 0.0
5749, 77.95311476501232, 158.9679127336221, 0.0
5750, 76.71148067693824, 160.2392868281858, 0.0
5751, 76.74429702154461, 158.9975693903759, 0.0
5752, 75.6064508910059, 156.5468823956174, 0.0
5753, 76.84274605536373, 155.2724170769461, 0.0
5754, 78.01340853050881, 156.4813866338946, 0.0
5755, 76.80992971075736, 156.514134514756, 0.0
5756, 79.24436477115037, 155.2038300911156, 0.0
5757, 80.4203661700117, 156.4158908721718, 0.0
5758, 79.18940992937014, 157.6934474149508, 0.0
5759, 79.21688735026025, 156.4486387530332, 0.0
5760, 80.37075025194773, 158.9085994201147, 0.0
5761, 79.13445508758991, 160.183064738786, 0.0
5762, 79.16193250848002, 158.9382560768684, 0.0
5763, 19.74377060211228, 31.07653290470203, 0.0
5764, 18.50043645651763, 32.34045047295585, 0.0
5765, 17.29489930207392, 31.12003381854544, 0.0
5766, 18.53823344766857, 29.85611625029162, 0.0
5767, 18.5193349520931, 31.09828336162374, 0.0
5768, 19.70182189468328, 33.55813584961273, 0.0
5769, 18.4626394653667, 34.82478469562008, 0.0
5770, 17.26125402720105, 33.6070993189632, 0.0
5771, 18.48153796094217, 33.58261758428797, 0.0
5772, 16.02622331416254, 34.87647944272408, 0.0
5773, 14.82068615971883, 33.65606278831366, 0.0
5774, 16.05571687275734, 32.38668266455279, 0.0
5775, 16.04097009345995, 33.63158105363843, 0.0
5776, 14.84602800203557, 31.16353473238884, 0.0
5777, 16.08521043135215, 29.8968858863815, 0.0
5778, 16.07046365205475, 31.14178427546714, 0.0
5779, 82.114127508523, 74.6071505901021, 0.0
5780, 83.2784475236337, 75.91791262515909, 0.0
5781, 82.11553622151132, 77.16918570887833, 0.0
5782, 80.95121620640062, 75.85842367382135, 0.0
5783, 82.11483186501717, 75.88816814949021, 0.0
5784, 84.44198062916263, 74.6821849877301, 0.0
5785, 85.6056788408668, 75.97740157649682, 0.0
5786, 84.44214573533787, 77.21312921392581, 0.0
5787, 84.44206318225025, 75.94765710082795, 0.0
5788, 85.60522214363552, 78.49280035640228, 0.0
5789, 84.44231084151313, 79.74407344012155, 0.0
5790, 83.27923443321549, 78.46440229764507, 0.0
5791, 84.44222828842551, 78.47860132702368, 0.0
5792, 82.11694493449964, 79.73122082765457, 0.0
5793, 80.95324672279547, 78.43600423888783, 0.0
5794, 82.11624057800547, 78.45020326826645, 0.0
5795, 65.47333924741785, 126.4050733414875, 0.0
5796, 66.27946873127763, 127.6238989584267, 0.0
5797, 65.30800485117504, 127.4715987342507, 0.0
5798, 65.80400803990347, 124.2720225559609, 0.0
5799, 66.62617594384398, 125.4965901881474, 0.0
5800, 65.63867364366065, 125.3385479487242, 0.0
5801, 67.79505106035083, 124.5938490500545, 0.0
5802, 67.43230542770377, 126.7154158050866, 0.0
5803, 67.6136782440273, 125.6546324275705, 0.0
5804, 67.25093261138022, 127.7761991826026, 0.0
5805, 26.325176938522, 61.17232982320283, 0.0
5806, 25.37933096123059, 62.6178459971039, 0.0
5807, 25.27246293358462, 61.30878256395241, 0.0
5808, 28.43060494839675, 60.89942434170368, 0.0
5809, 27.37755122480183, 62.07600259871182, 0.0
5810, 27.37789094345937, 61.03587708245325, 0.0
5811, 28.32271776477818, 62.71073745732791, 0.0
5812, 27.37687178748677, 64.15625363122898, 0.0
5813, 26.43170524751043, 63.52151877261289, 0.0
5814, 27.37721150614431, 63.1161281149704, 0.0
5815, 25.59306701652252, 65.23597286340687, 0.0
5816, 25.48619898887656, 63.92690943025539, 0.0
5817, 18.13933079679824, 85.50192028510116, 0.0
5818, 17.0679994600095, 84.11797889133706, 0.0
5819, 18.49570755787397, 82.83031036779266, 0.0
5820, 19.56703889466271, 84.21425176155677, 0.0
5821, 18.31751917733611, 84.16611532644691, 0.0
5822, 15.75862670965494, 85.35022418142916, 0.0
5823, 14.5689600253563, 84.02170602111735, 0.0
5824, 15.87833277571086, 82.78946073102526, 0.0
5825, 15.8184797426829, 84.0698424562272, 0.0
5826, 14.57033074390232, 81.51636580416579, 0.0
5827, 15.99803884176679, 80.22869728062139, 0.0
5828, 17.30604087357533, 81.50179220748086, 0.0
5829, 15.93818580873883, 81.50907900582334, 0.0
5830, 18.85208431894971, 80.15870045048415, 0.0
5831, 20.04175100324834, 81.48721861079594, 0.0
5832, 18.67389593841184, 81.49450540913838, 0.0
5833, 42.37813115253211, 65.29563227437589, 0.0
5834, 43.35478563187604, 66.37740018964269, 0.0
5835, 42.18357642270102, 67.35217241362423, 0.0
5836, 41.20692194335707, 66.27040449835744, 0.0
5837, 42.28085378761656, 66.32390234400006, 0.0
5838, 44.47153489952451, 65.38106314865311, 0.0
5839, 45.502649320395, 66.48439588092796, 0.0
5840, 44.38590005274653, 67.48073292191752, 0.0
5841, 44.42871747613552, 66.43089803528534, 0.0
5842, 45.47147441514357, 68.60563047120039, 0.0
5843, 44.30026520596854, 69.58040269518193, 0.0
5844, 43.2146908435715, 68.45550514589905, 0.0
5845, 44.34308262935753, 68.5305678085497, 0.0
5846, 41.98902169286993, 69.40871255287256, 0.0
5847, 40.95790727199944, 68.30537982059772, 0.0
5848, 42.08629905778547, 68.38044248324837, 0.0
5849, 48.92391210141421, 45.93945018958886, 0.0
5850, 50.29520097273875, 47.03888573896745, 0.0
5851, 49.48123315383121, 48.1365975201902, 0.0
5852, 49.20257262762271, 47.03802385488953, 0.0
5853, 49.77586869821569, 44.81369383655576, 0.0
5854, 48.64525157520571, 44.84087652428819, 0.0
5855, 52.03710294423564, 44.75932846109088, 0.0
5856, 51.14715756954023, 45.91312938593435, 0.0
5857, 50.90648582122567, 44.78651114882332, 0.0
5858, 52.48045766297082, 47.04060950712329, 0.0
5859, 51.62850106616935, 48.1663658601564, 0.0
5860, 51.38782931785479, 47.03974762304537, 0.0
5861, 23.61401853078804, 95.54599807036536, 0.0
5862, 22.54199672065114, 96.34465476775914, 0.0
5863, 21.65364170186139, 95.5620522307842, 0.0
5864, 22.72566351199829, 94.76339553339042, 0.0
5865, 22.63383011632471, 95.55402515057479, 0.0
5866, 23.24411806432134, 96.99783218276755, 0.0
5867, 22.35832992930398, 97.92591400212785, 0.0
5868, 21.65620858563378, 97.27273658711944, 0.0
5869, 22.45016332497756, 97.13528438494349, 0.0
5870, 20.95665412573597, 98.33024352844626, 0.0
5871, 20.06829910694622, 97.54764099147133, 0.0
5872, 20.76785356684403, 96.4901340501445, 0.0
5873, 20.86225384629, 97.41018878929538, 0.0
5874, 19.69326487293474, 95.57810639120305, 0.0
5875, 20.57905300795209, 94.65002457184275, 0.0
5876, 20.67345328739806, 95.57007931099363, 0.0
5877, 17.92025396799601, 125.2540845895113, 0.0
5878, 16.76254718582117, 123.995127063607, 0.0
5879, 17.92074190084492, 122.8177192603321, 0.0
5880, 19.07844868301977, 124.0766767862364, 0.0
5881, 17.92049793442047, 124.0359019249217, 0.0
5882, 15.6048705146946, 125.1797625610781, 0.0
5883, 14.44664568862256, 123.9135773409775, 0.0
5884, 15.60432235974912, 122.7289418435064, 0.0
5885, 15.60459643722186, 123.9543522022922, 0.0
5886, 14.44557948977988, 121.4555289292095, 0.0
5887, 15.60377420480365, 120.2781211259347, 0.0
5888, 16.76251707477288, 121.5515340402315, 0.0
5889, 15.60404828227638, 121.5035314847205, 0.0
5890, 17.92122983369384, 120.381353931153, 0.0
5891, 19.07945465976588, 121.6475391512536, 0.0
5892, 17.92098586726938, 121.5995365957426, 0.0
5893, 90.37803044305781, 98.69784077971653, 0.0
5894, 91.569495886185, 97.44934224147805, 0.0
5895, 92.76746878303916, 98.7157830281524, 0.0
5896, 91.5727496130485, 98.70681190393447, 0.0
5897, 90.37094878116906, 96.17840813798823, 0.0
5898, 91.56298843245798, 94.93440291656522, 0.0
5899, 92.76153553747392, 96.20533702005504, 0.0
5900, 91.56624215932149, 96.19187257902163, 0.0
5901, 93.95414939692458, 94.96582511544749, 0.0
5902, 95.15212229377877, 96.23226590212184, 0.0
5903, 93.95950843432809, 97.47177780672939, 0.0
5904, 93.95682891562635, 96.21880146108843, 0.0
5905, 95.15690712302052, 98.73372527658827, 0.0
5906, 93.96218795302984, 98.72475415237034, 0.0
5907, 77.50097718934131, 79.90668498651115, 0.0
5908, 78.66640348924287, 81.1444582247983, 0.0
5909, 77.54353705440727, 82.52784199637546, 0.0
5910, 77.52225712187429, 81.2172634914433, 0.0
5911, 79.80316705044237, 79.7854246764511, 0.0
5912, 80.95469622398, 80.99884769150829, 0.0
5913, 79.81793266278049, 82.35788123985549, 0.0
5914, 79.81054985661143, 81.0716529581533, 0.0
5915, 80.95556470995419, 83.54695403168273, 0.0
5916, 79.83269827511859, 84.93033780325987, 0.0
5917, 78.69506622794489, 83.74126501143265, 0.0
5918, 79.82531546894954, 83.64410952155768, 0.0
5919, 77.58609691947322, 85.14899900623976, 0.0
5920, 77.56481698694026, 83.83842050130761, 0.0
5921, 90.3880778285141, 118.9184228064306, 0.0
5922, 91.58499616593892, 117.6360907967938, 0.0
5923, 92.77326488930584, 118.8667506774303, 0.0
5924, 91.57634655188102, 120.1490826870671, 0.0
5925, 91.58067135890997, 118.8925867419305, 0.0
5926, 90.39975066741212, 116.4055678566023, 0.0
5927, 91.59364577999685, 115.1230989065204, 0.0
5928, 92.77889127852366, 116.3536218467119, 0.0
5929, 91.58932097296787, 116.3795948516571, 0.0
5930, 93.96976316626831, 115.0710159561851, 0.0
5931, 95.1580318896352, 116.3016758368216, 0.0
5932, 93.96716000189056, 117.5842817273485, 0.0
5933, 93.96846158407942, 116.3276488417668, 0.0
5934, 95.15845195009757, 118.8150785484301, 0.0
5935, 93.96455683751284, 120.0975474985119, 0.0
5936, 93.9658584197017, 118.8409146129302, 0.0
5937, 65.25198757197278, 48.90515760449247, 0.0
5938, 63.98801289521045, 47.61876667496712, 0.0
5939, 65.06114123682916, 46.48359559767659, 0.0
5940, 66.3251159135915, 47.76998652720194, 0.0
5941, 65.15656440440097, 47.69437660108454, 0.0
5942, 62.93095062598864, 48.7443892126519, 0.0
5943, 61.65090987682939, 47.46754682273229, 0.0
5944, 62.70797214605119, 46.34192428504752, 0.0
5945, 62.81946138601992, 47.54315674884971, 0.0
5946, 61.41186532449501, 45.07463043473368, 0.0
5947, 62.48499366611372, 43.93945935744315, 0.0
5948, 63.7811004876699, 45.20675320775699, 0.0
5949, 62.59648290608246, 45.14069182124533, 0.0
5950, 64.87029490168553, 44.06203359086071, 0.0
5951, 66.1503356508448, 45.33887598078032, 0.0
5952, 64.96571806925735, 45.27281459426865, 0.0
5953, 68.19822312478928, 107.7596498557279, 0.0
5954, 69.12746547148542, 106.6371728150005, 0.0
5955, 70.16797159382675, 107.415742677446, 0.0
5956, 69.2387292471306, 108.5382197181734, 0.0
5957, 69.18309735930801, 107.5876962665869, 0.0
5958, 68.14443611145677, 105.915107906238, 0.0
5959, 69.9992310558689, 105.4581908205902, 0.0
5960, 69.07183358366285, 105.6866493634141, 0.0
5961, 71.85402600028104, 105.0012737349424, 0.0
5962, 71.03973717821023, 106.2367606830357, 0.0
5963, 70.92662852807497, 105.2297322777663, 0.0
5964, 72.13772006286425, 107.0718354991642, 0.0
5965, 71.26595447848077, 108.2508174935745, 0.0
5966, 71.15284582834549, 107.2437890883051, 0.0
5967, 34.07855839194163, 94.38737829288868, 0.0
5968, 32.59769508545816, 95.11314263531489, 0.0
5969, 31.86294511773676, 93.74313089752046, 0.0
5970, 33.34380842422024, 93.01736655509424, 0.0
5971, 32.9707517548392, 94.06525459520458, 0.0
5972, 33.38808565798102, 96.35740322948263, 0.0
5973, 31.85158174669606, 97.20891871553555, 0.0
5974, 31.0611911741732, 95.96465812136782, 0.0
5975, 32.22463841607711, 96.16103067542522, 0.0
5976, 29.46904665808675, 96.94192475104744, 0.0
5977, 28.73429669036536, 95.57191301325301, 0.0
5978, 30.3264412064518, 94.59464638357338, 0.0
5979, 29.89774393226928, 95.76828556731041, 0.0
5980, 29.64733184353189, 93.09888350215223, 0.0
5981, 31.18383575481685, 92.24736801609933, 0.0
5982, 30.75513848063433, 93.42100719983634, 0.0
5983, 76.09916540293456, 58.14728985332972, 0.0
5984, 77.21857953846737, 56.98312568029594, 0.0
5985, 78.42093677952172, 58.27118101946904, 0.0
5986, 77.30152264398893, 59.43534519250284, 0.0
5987, 77.26005109122815, 58.20923543639939, 0.0
5988, 76.01009372997822, 55.6977018283275, 0.0
5989, 77.13563643294583, 54.53090616808904, 0.0
5990, 78.34412224143499, 55.81633002005749, 0.0
5991, 77.17710798570658, 55.75701592419249, 0.0
5992, 79.47579351183742, 54.64690287261437, 0.0
5993, 80.67815075289178, 55.93495821178747, 0.0
5994, 79.54647948248935, 57.10438535923059, 0.0
5995, 79.51113649716339, 55.87564411592248, 0.0
5996, 80.74270815610892, 58.39507218560836, 0.0
5997, 79.6171654531413, 59.56186784584681, 0.0
5998, 79.58182246781531, 58.3331266025387, 0.0
5999, 91.54163829825816, 82.42195744074525, 0.0
6000, 92.7438450251023, 83.69562507673172, 0.0
6001, 91.54304807905753, 84.92857781496787, 0.0
6002, 91.54234318865784, 83.67526762785656, 0.0
6003, 91.54022851745879, 79.91533706652262, 0.0
6004, 92.74146432743467, 81.19187760852267, 0.0
6005, 91.54093340785847, 81.16864725363394, 0.0
6006, 93.9403194397429, 79.96467068231368, 0.0
6007, 95.14252616658703, 81.23833831830015, 0.0
6008, 93.94367105427881, 82.46554524450914, 0.0
6009, 93.94199524701085, 81.21510796341141, 0.0
6010, 95.14684869799125, 83.73633997448205, 0.0
6011, 93.94702266881474, 84.96641980670462, 0.0
6012, 93.94534686154677, 83.71598252560689, 0.0
6013, 8.524005815349764, 137.5300129741301, 0.0
6014, 7.306270658633368, 136.258654629488, 0.0
6015, 8.509877328230854, 135.0178570249733, 0.0
6016, 8.516941571790309, 136.2739349995517, 0.0
6017, 8.538134302468675, 140.042168923287, 0.0
6018, 7.318370542472239, 138.7704446001155, 0.0
6019, 8.53107005890922, 138.7860909487085, 0.0
6020, 6.110706666314675, 140.0105102475716, 0.0
6021, 4.892971509598279, 138.7391519029294, 0.0
6022, 6.100635385755844, 137.4990862554734, 0.0
6023, 6.105671026035258, 138.7547982515225, 0.0
6024, 4.884928832319487, 136.2280938893607, 0.0
6025, 6.090564105197013, 134.9876622633752, 0.0
6026, 6.095599745476429, 136.2433742594243, 0.0
6027, 56.36691625900178, 175.4674177938931, 0.0
6028, 57.62727557975021, 176.6588946390843, 0.0
6029, 56.35788753237613, 177.890330805043, 0.0
6030, 55.09752821162769, 176.6988539598518, 0.0
6031, 56.36240189568895, 176.678874299468, 0.0
6032, 58.90126042927691, 175.4242555043799, 0.0
6033, 60.15702294787274, 176.6189353183169, 0.0
6034, 58.88303809834604, 177.8535744530213, 0.0
6035, 58.89214926381148, 176.6389149787005, 0.0
6036, 60.13420381478927, 179.051457235704, 0.0
6037, 58.86481576741518, 180.2828934016627, 0.0
6038, 57.61365005097196, 179.08501061898, 0.0
6039, 58.87392693288062, 179.068233927342, 0.0
6040, 56.34885880575048, 180.3132438161929, 0.0
6041, 55.09309628715465, 179.1185640022559, 0.0
6042, 56.3533731690633, 179.1017873106179, 0.0
6043, 9.698924666341258, 116.3883014530415, 0.0
6044, 8.490573632380894, 117.5963780479411, 0.0
6045, 7.285274345785528, 116.337374745826, 0.0
6046, 8.493625379745893, 115.1292981509264, 0.0
6047, 8.492099506063393, 116.3628380994337, 0.0
6048, 9.694698118803242, 118.8506592200984, 0.0
6049, 8.487521885015894, 120.0634579449558, 0.0
6050, 7.283397398593547, 118.8091767727985, 0.0
6051, 8.489047758698394, 118.8299179964484, 0.0
6052, 6.077395964979217, 120.0266976276138, 0.0
6053, 4.872096678383851, 118.7676943254987, 0.0
6054, 6.078098111998181, 117.5501734706834, 0.0
6055, 6.077747038488699, 118.7884355491486, 0.0
6056, 4.871624025229799, 116.2864480386105, 0.0
6057, 6.078800259017147, 115.073649313753, 0.0
6058, 6.078449185507663, 116.3119113922182, 0.0
6059, 52.11302897014369, 38.8820449863526, 0.0
6060, 53.56752787488821, 40.08450132432153, 0.0
6061, 52.55311831466886, 41.25839099737054, 0.0
6062, 52.33307364240628, 40.07021799186157, 0.0
6063, 54.6197188738782, 38.90943449270328, 0.0
6064, 56.03643633985207, 40.11306798924146, 0.0
6065, 54.98424534086209, 41.2881348208597, 0.0
6066, 54.80198210737014, 40.09878465678149, 0.0
6067, 56.36318136806533, 42.4929454759671, 0.0
6068, 55.34877180784598, 43.66683514901611, 0.0
6069, 53.96983578064274, 42.46202449390871, 0.0
6070, 55.16650857435403, 42.4774849849379, 0.0
6071, 52.99320765919403, 43.63473700838848, 0.0
6072, 52.77316298693144, 42.44656400287951, 0.0
6073, 16.77207017617999, 119.1313700959414, 0.0
6074, 17.94546822764546, 117.9978842911958, 0.0
6075, 17.93334903066965, 119.1896191111744, 0.0
6076, 14.44951246720067, 119.0148720654755, 0.0
6077, 15.61780843857701, 117.8681210354822, 0.0
6078, 15.61079132169033, 119.0731210807084, 0.0
6079, 14.45844462088491, 116.5916067497755, 0.0
6080, 15.63184267235038, 115.4581209450298, 0.0
6081, 16.79120649004249, 116.7346352307366, 0.0
6082, 15.6248255554637, 116.663120990256, 0.0
6083, 17.96970662159709, 115.6144146512386, 0.0
6084, 17.95758742462128, 116.8061494712172, 0.0
6085, 50.76018115001911, 49.23703979619819, 0.0
6086, 49.91700241810981, 50.27244974366381, 0.0
6087, 48.63805442192191, 49.17200746765582, 0.0
6088, 49.6991177859705, 49.20452363192701, 0.0
6089, 52.88230787811631, 49.30207212474055, 0.0
6090, 52.01398796196608, 50.37274606078233, 0.0
6091, 51.82124451406771, 49.26955596046937, 0.0
6092, 53.24265358967211, 51.54371631394265, 0.0
6093, 51.17080923005678, 51.40815600824796, 0.0
6094, 52.20673140986445, 51.47593616109531, 0.0
6095, 49.09896487044145, 51.27259570255328, 0.0
6096, 50.13488705024911, 51.34037585540062, 0.0
6097, 88.97158454564081, 150.0313986803, 0.0
6098, 87.7722276851593, 148.7960315079977, 0.0
6099, 88.99257530688075, 147.5373601061673, 0.0
6100, 90.19193216736225, 148.7727272784697, 0.0
6101, 88.98207992626078, 148.7843793932336, 0.0
6102, 86.54840075997413, 150.0537024613229, 0.0
6103, 86.57635012814148, 147.5616647842004, 0.0
6104, 86.5623754440578, 148.8076836227617, 0.0
6105, 86.60429949630883, 145.069627107078, 0.0
6106, 87.79669774986294, 146.3029933823701, 0.0
6107, 86.59032481222516, 146.3156459456392, 0.0
6108, 89.01356606812067, 145.0433215320344, 0.0
6109, 90.20944362513848, 146.2776882558317, 0.0
6110, 89.00307068750071, 146.2903408191009, 0.0
6111, 9.873214060941493, 93.85091473035354, 0.0
6112, 11.05826802096536, 92.58451692924125, 0.0
6113, 12.33662992292126, 93.8072443389851, 0.0
6114, 11.10492199193138, 93.82907953466932, 0.0
6115, 9.798235246820937, 91.34034315246694, 0.0
6116, 10.96496007903334, 90.0953917183851, 0.0
6117, 12.22499285317777, 91.3395654951594, 0.0
6118, 11.01161404999935, 91.33995432381317, 0.0
6119, 13.37338855757869, 90.11606042810801, 0.0
6120, 14.65175045953459, 91.33878783785187, 0.0
6121, 13.50335475513366, 92.56229290490326, 0.0
6122, 13.43837165635618, 91.33917666650564, 0.0
6123, 14.80004578490104, 93.76357394761666, 0.0
6124, 13.56833785391115, 93.78540914330088, 0.0
6125, 79.02608007311588, 124.1923599852939, 0.0
6126, 80.14101310932435, 122.9635114691893, 0.0
6127, 80.10258955993521, 124.1752800471428, 0.0
6128, 78.00464388026536, 123.0227233651344, 0.0
6129, 77.94957058629656, 124.209439923445, 0.0
6130, 78.11479046820298, 120.649290248513, 0.0
6131, 79.11957691647382, 121.7938748490297, 0.0
6132, 78.05971717423415, 121.8360068068237, 0.0
6133, 80.21786020810262, 120.5399743132823, 0.0
6134, 80.17943665871348, 121.7517428912358, 0.0
6135, 4.908809938893379, 93.79387337427929, 0.0
6136, 6.135212357796417, 92.55449376879977, 0.0
6137, 7.391011999917435, 93.82239405231641, 0.0
6138, 6.149910969405406, 93.80813371329785, 0.0
6139, 4.894606579309592, 91.28769071491328, 0.0
6140, 6.10581513457844, 90.04721387980362, 0.0
6141, 7.346420913065265, 91.31401693369011, 0.0
6142, 6.120513746187428, 91.30085382430168, 0.0
6143, 8.542435604699921, 90.0724428689503, 0.0
6144, 8.602220555186282, 92.58191721720675, 0.0
6145, 8.572328079943102, 91.32718004307853, 0.0
6146, 8.632113030429462, 93.83665439133499, 0.0
6147, 90.34026286055688, 128.9378455249385, 0.0
6148, 91.54913008695257, 127.664093696841, 0.0
6149, 92.74071436331128, 128.8873641279791, 0.0
6150, 91.53184713691559, 130.1611159560766, 0.0
6151, 91.54048861193408, 128.9126048264588, 0.0
6152, 90.36198630240061, 126.4418591840559, 0.0
6153, 91.56641303698956, 125.1670714376055, 0.0
6154, 92.75355682154154, 126.3893059503906, 0.0
6155, 91.55777156197107, 126.4155825672233, 0.0
6156, 93.95354306432374, 125.1134822855872, 0.0
6157, 95.14512734068244, 126.3367527167253, 0.0
6158, 93.94514109790023, 127.6125763815287, 0.0
6159, 93.949342081112, 126.3630293335579, 0.0
6160, 95.14116586606566, 128.8368827310197, 0.0
6161, 93.93673913147671, 130.1116704774701, 0.0
6162, 93.94094011468847, 128.8621234294994, 0.0
6163, 59.2444080797301, 163.1160645846934, 0.0
6164, 58.04518384738023, 161.8422072617603, 0.0
6165, 59.33321070585856, 161.8722677844965, 0.0
6166, 57.85616475865643, 164.3514904204234, 0.0
6167, 59.15560545360163, 164.3598613848904, 0.0
6168, 55.257283368766, 164.3347484914894, 0.0
6169, 56.65694052630656, 163.0776330974903, 0.0
6170, 56.55672406371121, 164.3431194559564, 0.0
6171, 55.46913013042356, 161.782086216288, 0.0
6172, 56.75715698890189, 161.8121467390242, 0.0
6173, 61.40209430331913, 177.8147720224666, 0.0
6174, 62.64408666278083, 179.014964483882, 0.0
6175, 61.37619617425096, 180.2516496971194, 0.0
6176, 61.38914523878505, 179.033210859793, 0.0
6177, 61.4279924323873, 175.3778943478139, 0.0
6178, 62.67306378783368, 176.5737310519637, 0.0
6179, 61.41504336785322, 176.5963331851403, 0.0
6180, 63.94711226833293, 175.3283343241952, 0.0
6181, 65.18910462779463, 176.5285267856106, 0.0
6182, 63.91505614729539, 177.773923513379, 0.0
6183, 63.93108420781416, 176.5511289187871, 0.0
6184, 65.15396951077238, 178.9784717320599, 0.0
6185, 63.88300002625783, 180.2195127025628, 0.0
6186, 63.89902808677661, 178.9967181079709, 0.0
6187, 82.11725362457338, 84.81408327411079, 0.0
6188, 83.29503161739709, 86.05750356940226, 0.0
6189, 82.15797749749684, 87.31059856169206, 0.0
6190, 80.98019950467312, 86.06717826640059, 0.0
6191, 82.13761556103509, 86.06234091790142, 0.0
6192, 84.43976296783754, 84.80023541879247, 0.0
6193, 85.60986373012105, 86.04782887240393, 0.0
6194, 84.4651323796806, 87.30509702301372, 0.0
6195, 84.45244767375905, 86.05266622090309, 0.0
6196, 85.62755591142391, 88.55686363494516, 0.0
6197, 83.32807825978036, 88.55819201530352, 0.0
6198, 84.47781708560214, 88.55752782512434, 0.0
6199, 81.0286006081368, 88.55952039566188, 0.0
6200, 82.17833943395858, 88.5588562054827, 0.0
6201, 4.875254785493441, 113.8024336969579, 0.0
6202, 6.089954021824616, 112.598184500696, 0.0
6203, 7.293499495348322, 113.8694001174912, 0.0
6204, 6.084377140420881, 113.8359169072245, 0.0
6205, 4.882988959174775, 111.3156513005411, 0.0
6206, 6.101107784632084, 110.122719687639, 0.0
6207, 7.308072847281926, 111.405252887794, 0.0
6208, 6.09553090322835, 111.3604520941675, 0.0
6209, 8.529611261865371, 110.2236388582518, 0.0
6210, 8.511618320805631, 112.6764685045891, 0.0
6211, 8.520614791335502, 111.4500536814205, 0.0
6212, 8.502621850275762, 113.9028833277578, 0.0
6213, 15.68622916885932, 135.2002032676854, 0.0
6214, 16.87800196823527, 136.4948422584148, 0.0
6215, 15.71188145021454, 137.7152690281171, 0.0
6216, 15.69905530953693, 136.4577361479012, 0.0
6217, 18.03986396715414, 135.2749441068969, 0.0
6218, 18.07403328671307, 137.7889526309598, 0.0
6219, 18.0569486269336, 136.5319483689283, 0.0
6220, 18.108202606272, 140.3029611550228, 0.0
6221, 16.90791276869235, 139.0093794006622, 0.0
6222, 18.09111794649253, 139.0459568929913, 0.0
6223, 15.73753373156977, 140.2303347885489, 0.0
6224, 15.72470759089216, 138.972801908333, 0.0
6225, 91.5114672168095, 67.4293077946167, 0.0
6226, 92.72069784426242, 68.69651180280398, 0.0
6227, 91.52072804519315, 69.9227425149527, 0.0
6228, 91.51609763100133, 68.67602515478471, 0.0
6229, 91.50220638842586, 64.9358730742807, 0.0
6230, 92.71208153026348, 66.20258209071282, 0.0
6231, 91.50683680261768, 66.1825904344487, 0.0
6232, 93.91334035810212, 64.97536139505377, 0.0
6233, 95.12257098555503, 66.24256540324106, 0.0
6234, 93.92131215771639, 67.4697860989001, 0.0
6235, 93.91732625790925, 66.22257374697693, 0.0
6236, 95.1298982707846, 68.73748509884254, 0.0
6237, 93.92928395733063, 69.96421080274642, 0.0
6238, 93.9252980575235, 68.71699845082325, 0.0
6239, 90.25086134263458, 138.8331638484155, 0.0
6240, 91.46981101998237, 137.5863549127216, 0.0
6241, 92.67565332445146, 138.8108625531754, 0.0
6242, 91.45670364710367, 140.0576714888693, 0.0
6243, 91.46325733354303, 138.8220132007954, 0.0
6244, 90.26615185782333, 136.3663160923845, 0.0
6245, 91.48291839286108, 135.1150383365739, 0.0
6246, 92.68657755502012, 136.335077156911, 0.0
6247, 91.47636470642173, 136.3506966246477, 0.0
6248, 93.90116094774783, 135.0793305809837, 0.0
6249, 95.10700325221691, 136.3038382214374, 0.0
6250, 93.89241985948921, 137.5595847973648, 0.0
6251, 93.89679040361852, 136.3194576891742, 0.0
6252, 95.10044530626834, 138.7885612579353, 0.0
6253, 93.88367877123059, 140.0398390137459, 0.0
6254, 93.8880493153599, 138.7997119055553, 0.0
6255, 77.69093878873059, 87.59697444934648, 0.0
6256, 78.83844001828511, 88.73381491248718, 0.0
6257, 77.79578065798795, 90.04494989245316, 0.0
6258, 77.74335972335926, 88.8209621708998, 0.0
6259, 78.75241173762564, 86.27105057399561, 0.0
6260, 77.6385178541019, 86.37298672779312, 0.0
6261, 79.89991296718017, 87.40789103713632, 0.0
6262, 79.86630562114938, 86.1691144201981, 0.0
6263, 79.96712765924173, 89.88544427101274, 0.0
6264, 79.93352031321095, 88.64666765407455, 0.0
6265, 81.9524405853992, 59.67214105659881, 0.0
6266, 83.14954178407491, 60.95375846372029, 0.0
6267, 81.99701720556088, 62.13738310083343, 0.0
6268, 80.79991600688517, 60.85576569371196, 0.0
6269, 81.97472889548004, 60.90476207871612, 0.0
6270, 84.30734804076263, 59.76616482475884, 0.0
6271, 85.49916756126467, 61.05175123372862, 0.0
6272, 84.34136130457696, 62.23934487269007, 0.0
6273, 84.32435467266981, 61.00275484872446, 0.0
6274, 85.52789914690533, 63.52890028350815, 0.0
6275, 84.3753745683913, 64.71252492062129, 0.0
6276, 83.18883672606293, 63.42296950980322, 0.0
6277, 84.35836793648413, 63.47593489665569, 0.0
6278, 82.04159382572257, 64.60262514506806, 0.0
6279, 80.84977430522054, 63.31703873609827, 0.0
6280, 82.01930551564172, 63.37000412295075, 0.0
6281, 39.91210989130302, 13.5877271160471, 0.0
6282, 41.1822502557557, 12.35506696451304, 0.0
6283, 42.42333240340341, 13.57552911498972, 0.0
6284, 41.16772114735321, 13.58162811551841, 0.0
6285, 39.94362839205425, 11.13377977912026, 0.0
6286, 41.21130847256071, 9.901944662502302, 0.0
6287, 42.44993033626216, 11.12323184789508, 0.0
6288, 41.19677936415821, 11.12850581350767, 0.0
6289, 43.71515013282239, 9.892221766193224, 0.0
6290, 44.95623228047009, 11.1126839166699, 0.0
6291, 43.69101248390987, 12.34369399837176, 0.0
6292, 43.70308130836613, 11.11795788228249, 0.0
6293, 44.93455491550381, 13.56333111393234, 0.0
6294, 43.67894365945361, 13.56943011446103, 0.0
6295, 78.65644388658464, 78.52603313885167, 0.0
6296, 79.80652355893776, 77.1766127012884, 0.0
6297, 79.80484530469008, 78.48101868886975, 0.0
6298, 76.35964105037382, 78.61606203881553, 0.0
6299, 77.51510774761717, 77.23541019115603, 0.0
6300, 77.50804246847923, 78.57104758883358, 0.0
6301, 76.37915863353993, 75.9135558333642, 0.0
6302, 77.52923830589302, 74.56413539580092, 0.0
6303, 78.66518741997027, 75.88598975359277, 0.0
6304, 77.5221730267551, 75.89977279347849, 0.0
6305, 79.80988006743314, 74.56780072612571, 0.0
6306, 79.80820181318543, 75.87220671370706, 0.0
6307, 70.43171639193118, 136.2756406939446, 0.0
6308, 69.36622470314754, 137.9746741330047, 0.0
6309, 67.95149676957331, 136.944534912012, 0.0
6310, 69.01698845835693, 135.2455014729519, 0.0
6311, 69.19160658075225, 136.6100878029783, 0.0
6312, 70.76167461329862, 139.1525625983151, 0.0
6313, 69.71546094793817, 140.7038467930574, 0.0
6314, 68.32001103778708, 139.525958327747, 0.0
6315, 69.54084282554285, 139.3392604630311, 0.0
6316, 67.2930753958498, 140.9294932781717, 0.0
6317, 66.90528310421284, 138.4958191067543, 0.0
6318, 67.09917925003131, 139.712656192463, 0.0
6319, 66.51749081257591, 136.062144935337, 0.0
6320, 66.71138695839439, 137.2789820210456, 0.0
6321, 16.49792508394451, 97.47956417599511, 0.0
6322, 17.84333077803644, 98.36867449827172, 0.0
6323, 16.73084661358154, 98.77919125167192, 0.0
6324, 16.03208202467044, 94.88031002464152, 0.0
6325, 17.40775732718323, 95.97932686394655, 0.0
6326, 16.26500355430748, 96.17993710031831, 0.0
6327, 18.34785917884281, 94.68899606892643, 0.0
6328, 18.75316302127516, 96.86843718622316, 0.0
6329, 18.55051110005898, 95.7787166275748, 0.0
6330, 18.95581494249133, 97.95815774487153, 0.0
6331, 55.06035268401696, 186.4201314130365, 0.0
6332, 53.8022732342428, 187.6502248172054, 0.0
6333, 52.55791122038846, 186.4294405548596, 0.0
6334, 53.81599067016262, 185.1993471506906, 0.0
6335, 53.8091319522027, 186.4247859839481, 0.0
6336, 55.04534390192786, 188.8715001565825, 0.0
6337, 53.78855579832297, 190.1011024837202, 0.0
6338, 52.54548513063791, 188.8798271443432, 0.0
6339, 53.79541451628289, 188.8756636504628, 0.0
6340, 51.28998837320229, 190.1089383944496, 0.0
6341, 50.04562635934796, 188.8881541321038, 0.0
6342, 51.30112311678357, 187.6590428819973, 0.0
6343, 51.29555574499292, 188.8839906382235, 0.0
6344, 50.05546975675997, 186.4387496966827, 0.0
6345, 51.31225786036486, 185.209147369545, 0.0
6346, 51.30669048857422, 186.4340951257712, 0.0
6347, 87.74637651199224, 151.2942777854149, 0.0
6348, 86.51782351387303, 152.5571256387425, 0.0
6349, 85.31984776185493, 151.3165503146505, 0.0
6350, 86.53311213692359, 151.3054140500327, 0.0
6351, 90.17290526212956, 151.2720052561793, 0.0
6352, 88.94769722848099, 152.5348843612941, 0.0
6353, 88.9596408870609, 151.2831415207971, 0.0
6354, 90.1523629094404, 153.7755221889606, 0.0
6355, 88.9238099113212, 155.0383700422882, 0.0
6356, 87.71914423036179, 153.7977322146218, 0.0
6357, 88.9357535699011, 153.7866272017912, 0.0
6358, 86.48724626777192, 155.0605488161622, 0.0
6359, 85.28592555128316, 153.8199422402829, 0.0
6360, 86.50253489082246, 153.8088372274523, 0.0
6361, 20.28728284702247, 130.2851026104179, 0.0
6362, 21.45856816996782, 131.5655647051586, 0.0
6363, 20.33469069036961, 132.8099820211123, 0.0
6364, 19.16340536742428, 131.5295199263716, 0.0
6365, 20.31098676869605, 131.5475423157651, 0.0
6366, 22.57055513880373, 130.3181310452646, 0.0
6367, 23.75373097251136, 131.6016094839456, 0.0
6368, 22.64174400367545, 132.8490431438396, 0.0
6369, 22.60614957123959, 131.5835870945521, 0.0
6370, 23.83681034814536, 134.1355379264609, 0.0
6371, 21.51786652407724, 134.0934604597933, 0.0
6372, 22.6773384361113, 134.1144991931271, 0.0
6373, 19.19892270000912, 134.0513829931256, 0.0
6374, 20.35839461204318, 134.0724217264594, 0.0
6375, 81.39559374202659, 29.86865159208372, 0.0
6376, 82.64241496972964, 31.1306312571516, 0.0
6377, 81.4261516043112, 32.354016280121, 0.0
6378, 80.17933037660814, 31.09203661505311, 0.0
6379, 81.41087267316888, 31.11133393610236, 0.0
6380, 83.86202718018073, 29.90453134358525, 0.0
6381, 85.10549956285114, 31.16922589925009, 0.0
6382, 83.88588735240005, 32.39532581281644, 0.0
6383, 83.87395726629039, 31.14992857820085, 0.0
6384, 85.1260108900378, 33.66273525907823, 0.0
6385, 83.90974752461935, 34.88612028204764, 0.0
6386, 82.6696239869816, 33.61871083578584, 0.0
6387, 83.89781743850969, 33.64072304743204, 0.0
6388, 81.4567094665958, 34.83938096815828, 0.0
6389, 80.21323708392539, 33.57468641249344, 0.0
6390, 81.4414305354535, 33.59669862413964, 0.0
6391, 55.00275146105662, 13.56857508756847, 0.0
6392, 56.25765254015532, 12.3477218252784, 0.0
6393, 57.51864572503031, 13.58157619651229, 0.0
6394, 56.2637446459316, 14.80242945880235, 0.0
6395, 56.26069859304347, 13.57507564204038, 0.0
6396, 54.99910244045479, 11.11569551911773, 0.0
6397, 56.25156043437904, 9.893014191754443, 0.0
6398, 57.51011053407958, 11.12504049791511, 0.0
6399, 56.25460648726718, 11.12036800851642, 0.0
6400, 58.76012544282939, 9.900531105478603, 0.0
6401, 60.02111862770438, 11.13438547671249, 0.0
6402, 58.77110371895456, 12.358894869149, 0.0
6403, 58.76561458089198, 11.1297129873138, 0.0
6404, 60.034539989004, 13.59457730545611, 0.0
6405, 58.78208199507974, 14.8172586328194, 0.0
6406, 58.77659285701715, 13.5880767509842, 0.0
6407, 18.08367754065997, 62.63344142791763, 0.0
6408, 16.91125594158186, 61.3097429946011, 0.0
6409, 18.14178770900869, 60.03274594743425, 0.0
6410, 18.11273262483433, 61.33309368767594, 0.0
6411, 18.02556737231125, 65.23413690840101, 0.0
6412, 16.85883027923038, 63.89400372367592, 0.0
6413, 18.05462245648561, 63.93378916815932, 0.0
6414, 15.63966752379802, 65.13813126802563, 0.0
6415, 14.4672459247199, 63.81443283470909, 0.0
6416, 15.68640868015226, 62.57030529035939, 0.0
6417, 15.66303810197514, 63.85421827919251, 0.0
6418, 14.5083025750769, 61.26304160845142, 0.0
6419, 15.7331498365065, 60.00247931269314, 0.0
6420, 15.70977925832938, 61.28639230152626, 0.0
6421, 21.04032250927532, 170.1506196687336, 0.0
6422, 22.2941272373996, 171.4201871154171, 0.0
6423, 21.08088474238524, 172.6364345880604, 0.0
6424, 19.82708001426096, 171.366867141377, 0.0
6425, 21.06060362583028, 171.393527128397, 0.0
6426, 23.50341727817059, 170.2069511322704, 0.0
6427, 24.76117446053824, 171.4735070894572, 0.0
6428, 23.55188441976725, 172.6867430726039, 0.0
6429, 23.52765084896892, 171.4468471024371, 0.0
6430, 24.81359405637826, 173.9502875402941, 0.0
6431, 23.60035156136391, 175.1665350129375, 0.0
6432, 22.33864192475289, 173.9029905452473, 0.0
6433, 23.57611799056558, 173.9266390427707, 0.0
6434, 21.12144697549516, 175.1222495073873, 0.0
6435, 19.86368979312751, 173.8556935502004, 0.0
6436, 21.1011658589402, 173.8793420477238, 0.0
6437, 21.40528946979808, 129.0647356506984, 0.0
6438, 22.51659182107996, 127.8518232111527, 0.0
6439, 22.54357347994185, 129.0849771282087, 0.0
6440, 19.12872144951056, 129.0242526956779, 0.0
6441, 20.24672807228617, 127.8038857359584, 0.0
6442, 20.26700545965432, 129.0444941731881, 0.0
6443, 19.094870946268, 126.5355813010445, 0.0
6444, 20.20617329754987, 125.3226688614988, 0.0
6445, 21.35803042356804, 126.5909732964127, 0.0
6446, 20.22645068491802, 126.5632772987286, 0.0
6447, 22.46262850335617, 125.3855153770408, 0.0
6448, 22.48961016221806, 126.6186692940967, 0.0
6449, 75.19127267575902, 64.20893731806781, 0.0
6450, 74.02464544686259, 62.90670875805495, 0.0
6451, 75.09818395101595, 61.75235299977527, 0.0
6452, 76.26481117991239, 63.05458155978813, 0.0
6453, 75.14472831338749, 62.98064515892154, 0.0
6454, 72.96345570711921, 64.062650371989, 0.0
6455, 71.78447971381279, 62.75883595632178, 0.0
6456, 72.84566945355617, 61.60289434238774, 0.0
6457, 72.9045625803377, 62.83277235718836, 0.0
6458, 71.6543446958398, 60.29749407106618, 0.0
6459, 72.72788319999316, 59.14313831278649, 0.0
6460, 73.91920795770953, 60.44853858410806, 0.0
6461, 72.78677632677467, 60.37301632758711, 0.0
6462, 75.00509522627287, 59.29576868148273, 0.0
6463, 76.1840712195793, 60.59958309714994, 0.0
6464, 75.05163958864442, 60.52406084062899, 0.0
6465, 81.62053469240708, 44.80043684518874, 0.0
6466, 82.85236295128236, 46.07885394356697, 0.0
6467, 81.67069762383363, 47.29148228046024, 0.0
6468, 81.64561615812035, 46.0459595628245, 0.0
6469, 84.03957036557318, 44.86365929091325, 0.0
6470, 85.26585653760637, 46.14464270505191, 0.0
6471, 84.07864912331553, 47.35983735770563, 0.0
6472, 84.05910974444436, 46.11174832430944, 0.0
6473, 85.2993932085066, 48.64338708760472, 0.0
6474, 84.11772788105789, 49.856015424498, 0.0
6475, 82.89698379586682, 48.5724656945989, 0.0
6476, 84.09818850218672, 48.60792639110181, 0.0
6477, 81.72086055526022, 49.78252771573175, 0.0
6478, 81.69577908954693, 48.53700499809599, 0.0
6479, 49.98414465458298, 8.651274777226579, 0.0
6480, 51.23966058382102, 7.419238746315352, 0.0
6481, 52.49068865004809, 8.65326367297288, 0.0
6482, 51.23517272081004, 9.885299703884106, 0.0
6483, 51.23741665231553, 8.65226922509973, 0.0
6484, 49.99015866169141, 6.185862277917028, 0.0
6485, 51.244148446832, 4.953177788746599, 0.0
6486, 52.49365036896161, 6.186554257144921, 0.0
6487, 51.24190451532651, 6.186208267530974, 0.0
6488, 53.74611401000475, 4.953221309715287, 0.0
6489, 54.99714207623181, 6.187246236372815, 0.0
6490, 53.74467843518867, 7.420579183802449, 0.0
6491, 53.74539622259671, 6.186900246758869, 0.0
6492, 54.99723264551319, 8.655252568719181, 0.0
6493, 53.7432428603726, 9.887937057889612, 0.0
6494, 53.74396064778064, 8.65425812084603, 0.0
6495, 86.8129119171875, 89.8388384183217, 0.0
6496, 87.99434661417052, 91.11438939749365, 0.0
6497, 86.8214446908749, 92.33374885139861, 0.0
6498, 86.81717830403122, 91.08629363486016, 0.0
6499, 89.16593174741186, 89.89375322253355, 0.0
6500, 90.3486832344492, 91.17058092276062, 0.0
6501, 89.17709810120786, 92.39121709772073, 0.0
6502, 89.17151492430986, 91.14248516012714, 0.0
6503, 90.36116637829952, 93.66932151900293, 0.0
6504, 89.18826445500387, 94.88868097290789, 0.0
6505, 88.00419617791223, 93.61057655162568, 0.0
6506, 89.18268127810589, 93.63994903531432, 0.0
6507, 86.82997746456229, 94.82865928447552, 0.0
6508, 86.8257110777186, 93.58120406793707, 0.0
6509, 56.96134836973906, 152.3750063223998, 0.0
6510, 55.8677394384837, 153.313064397547, 0.0
6511, 55.22285483440807, 152.2051143775247, 0.0
6512, 56.31646376566344, 151.2670563023775, 0.0
6513, 56.09210160207357, 152.2900603499622, 0.0
6514, 56.6317088221315, 154.5755424627088, 0.0
6515, 54.65504572765613, 154.0965944275547, 0.0
6516, 55.64337727489382, 154.3360684451317, 0.0
6517, 54.0101611235805, 152.9886444075323, 0.0
6518, 53.66671418041844, 153.8571204099775, 0.0
6519, 54.69705500990463, 151.2516924026418, 0.0
6520, 54.35360806674257, 152.1201684050871, 0.0
6521, 86.88108444514143, 122.7763941467419, 0.0
6522, 88.03895195401148, 123.9952264843251, 0.0
6523, 86.86057504713484, 125.2701732256861, 0.0
6524, 86.87082974613816, 124.0232836862141, 0.0
6525, 86.90159384314799, 120.2826150677978, 0.0
6526, 88.0541904503063, 121.4962044763173, 0.0
6527, 86.89133914414471, 121.5295046072698, 0.0
6528, 89.22202555375941, 120.2107718768291, 0.0
6529, 90.37989306262945, 121.4296042144122, 0.0
6530, 89.21205795917635, 122.7150368139004, 0.0
6531, 89.21704175646789, 121.4629043453648, 0.0
6532, 90.37519636975813, 123.9391120805471, 0.0
6533, 89.20209036459326, 125.2193017509718, 0.0
6534, 89.2070741618848, 123.9671692824361, 0.0
6535, 70.34620233864388, 169.0515883461406, 0.0
6536, 71.61416534619804, 167.7911229275454, 0.0
6537, 72.8196746340937, 168.9995886497305, 0.0
6538, 71.55171162653954, 170.2600540683256, 0.0
6539, 71.58293848636879, 169.0255884979355, 0.0
6540, 70.41161740073011, 166.5860025851675, 0.0
6541, 71.67661906585653, 165.3221917867652, 0.0
6542, 72.87916701132445, 166.5273121291432, 0.0
6543, 71.64539220602728, 166.5566573571553, 0.0
6544, 74.14120733402311, 165.2601559509339, 0.0
6545, 75.34671662191877, 166.4686216731189, 0.0
6546, 74.08467629922012, 167.7357778513283, 0.0
6547, 74.11294181662161, 166.4979669011311, 0.0
6548, 75.29314692954355, 168.9475889533205, 0.0
6549, 74.02814526441713, 170.2113997517228, 0.0
6550, 74.05641078181863, 168.9735888015255, 0.0
6551, 32.1352333025532, 57.84463519740226, 0.0
6552, 30.94261111063932, 56.38327345254032, 0.0
6553, 32.04405850867686, 55.10664488883445, 0.0
6554, 32.08964590561503, 56.47564004311836, 0.0
6555, 32.22640809642955, 60.58262550597007, 0.0
6556, 30.96695142200536, 59.05198421658715, 0.0
6557, 32.18082069949138, 59.21363035168617, 0.0
6558, 29.7318350589472, 60.19005369125107, 0.0
6559, 29.77432923009147, 57.59062247172521, 0.0
6560, 29.75308214451934, 58.89033808148814, 0.0
6561, 29.81682340123573, 54.99119125219936, 0.0
6562, 29.7955763156636, 56.29090686196228, 0.0
6563, 91.42104878959094, 147.5210997784038, 0.0
6564, 92.63568378524164, 148.7652206456303, 0.0
6565, 91.40656716301297, 150.0168481456961, 0.0
6566, 91.41380797630197, 148.76897396205, 0.0
6567, 91.43553041616892, 145.0253514111115, 0.0
6568, 92.64713558062137, 146.2687629336836, 0.0
6569, 91.42828960287991, 146.2732255947577, 0.0
6570, 93.87019254045354, 145.0157167443091, 0.0
6571, 95.08482753610426, 146.2598376115356, 0.0
6572, 93.86177057627208, 147.5128838009101, 0.0
6573, 93.86598155836282, 146.2643002726096, 0.0
6574, 95.07943540312104, 148.757714012791, 0.0
6575, 93.8533486120906, 150.0100508575111, 0.0
6576, 93.85755959418134, 148.7614673292106, 0.0
6577, 86.7853672561248, 74.76501658533189, 0.0
6578, 87.96676759849245, 76.06289448871254, 0.0
6579, 86.78707918323445, 77.27527947987747, 0.0
6580, 86.78622321967964, 76.02014803260468, 0.0
6581, 89.14428738940956, 74.85564538290751, 0.0
6582, 90.32785635611813, 76.14838740092827, 0.0
6583, 89.15033656520103, 77.3556365067333, 0.0
6584, 89.14731197730529, 76.10564094482041, 0.0
6585, 90.33607415625053, 78.64324263939415, 0.0
6586, 87.97064814994303, 78.56802149789823, 0.0
6587, 89.1533611530968, 78.60563206864617, 0.0
6588, 86.78793514678927, 78.53041092715026, 0.0
6589, 55.09807148855265, 174.2712337609178, 0.0
6590, 56.37115866698294, 173.0296275120334, 0.0
6591, 57.64000343743207, 174.2258115450087, 0.0
6592, 56.36903746299235, 174.2485226529632, 0.0
6593, 55.09472611792953, 171.8357034054539, 0.0
6594, 57.65183362401752, 171.7857613367531, 0.0
6595, 56.37327987097352, 171.8107323711035, 0.0
6596, 60.20894113010552, 171.7358192680522, 0.0
6597, 58.92067839446665, 172.9819453697284, 0.0
6598, 58.93038737706152, 171.7607903024027, 0.0
6599, 60.18193538631149, 174.1803893290996, 0.0
6600, 58.91096941187179, 174.2031004370541, 0.0
6601, 45.0353746488083, 191.3468422135616, 0.0
6602, 43.7791995818982, 192.5791063137824, 0.0
6603, 42.53310919729147, 191.3450960459508, 0.0
6604, 43.78928426420158, 190.11283194573, 0.0
6605, 43.78424192304989, 191.3459691297562, 0.0
6606, 45.02448268651345, 193.8124604418277, 0.0
6607, 43.76911489959481, 195.0453806818348, 0.0
6608, 42.52383179497956, 193.8120265537895, 0.0
6609, 43.7741572407465, 193.8122434978087, 0.0
6610, 41.26927128805239, 195.0456029335828, 0.0
6611, 40.02318090344566, 193.8115926657512, 0.0
6612, 41.27774141037284, 192.5780162859579, 0.0
6613, 41.27350634921261, 193.8118096097704, 0.0
6614, 40.03084374577466, 191.3433498783399, 0.0
6615, 41.28621153269329, 190.1104296383328, 0.0
6616, 41.28197647153306, 191.3442229621453, 0.0
6617, 75.15928039031019, 176.3815566939465, 0.0
6618, 73.89821988092633, 177.6338501902763, 0.0
6619, 72.67498805725867, 176.4126143437342, 0.0
6620, 73.93604856664251, 175.1603208474044, 0.0
6621, 73.91713422378442, 176.3970855188404, 0.0
6622, 75.12299585001023, 178.8581625595642, 0.0
6623, 73.86039119521014, 180.1073795331483, 0.0
6624, 72.63561522612625, 178.8830671638603, 0.0
6625, 73.87930553806824, 178.8706148617123, 0.0
6626, 71.37146642590992, 180.1292076146986, 0.0
6627, 70.14823460224225, 178.9079717681565, 0.0
6628, 71.41238340245857, 177.6618313173182, 0.0
6629, 71.39192491418424, 178.8955194660084, 0.0
6630, 70.19069572420715, 176.4436719935219, 0.0
6631, 71.45330037900723, 175.1944550199378, 0.0
6632, 71.4328418907329, 176.428143168628, 0.0
6633, 40.28042417757185, 160.8184045120562, 0.0
6634, 41.63514363069302, 162.0024464565253, 0.0
6635, 40.50276043828009, 163.268623215787, 0.0
6636, 40.39159230792597, 162.0435138639216, 0.0
6637, 42.7457078875633, 160.7252584689812, 0.0
6638, 44.1222462762271, 161.9203116417326, 0.0
6639, 43.01168201935681, 163.1974996292766, 0.0
6640, 42.87869495346006, 161.9613790491289, 0.0
6641, 44.41003934356324, 164.4035640303103, 0.0
6642, 43.27765615115032, 165.669740789572, 0.0
6643, 41.87929882694389, 164.4636763885384, 0.0
6644, 43.14466908525356, 164.4336202094243, 0.0
6645, 40.72509669898834, 165.7188419195178, 0.0
6646, 40.61392856863421, 164.4937325676524, 0.0
6647, 35.00401372038279, 186.4019240232648, 0.0
6648, 33.75571143483032, 187.6236827129589, 0.0
6649, 32.49625109188818, 186.3819530370658, 0.0
6650, 33.74455337744064, 185.1601943473718, 0.0
6651, 33.75013240613549, 186.3919385301653, 0.0
6652, 35.01435945739193, 188.8630442789467, 0.0
6653, 33.76686949222001, 190.0871710785459, 0.0
6654, 32.5082214696584, 188.8478095125581, 0.0
6655, 33.76129046352516, 188.8554268957524, 0.0
6656, 31.26154382486701, 190.0743044220626, 0.0
6657, 30.00208348192486, 188.8325747461696, 0.0
6658, 31.24876112671625, 187.6060798366651, 0.0
6659, 31.25515247579163, 188.8401921293639, 0.0
6660, 29.98848846339357, 186.3619820508669, 0.0
6661, 31.23597842856549, 185.1378552512676, 0.0
6662, 31.24236977764087, 186.3719675439663, 0.0
6663, 25.97302512470368, 170.2701943731046, 0.0
6664, 27.24119193515982, 171.5386861824221, 0.0
6665, 26.02934127099438, 172.7419988987746, 0.0
6666, 26.00118319784903, 171.5060966359396, 0.0
6667, 28.44914604887458, 170.3403493912363, 0.0
6668, 29.72120940978139, 171.603865275387, 0.0
6669, 28.51325529606662, 172.8022020665727, 0.0
6670, 28.4812006724706, 171.5712757289045, 0.0
6671, 29.7892152074241, 174.0607420255565, 0.0
6672, 28.57736454325866, 175.2640547419091, 0.0
6673, 27.30140463190118, 174.0055147829253, 0.0
6674, 28.54530991966264, 174.0331284042409, 0.0
6675, 26.08565741728507, 175.2138034244447, 0.0
6676, 26.05749934413972, 173.9779011616097, 0.0
6677, 25.92365352358513, 86.82251032731001, 0.0
6678, 25.92537907123119, 85.14477482584488, 0.0
6679, 26.73257957920278, 85.85938698558255, 0.0
6680, 24.30580141234983, 88.74875701076499, 0.0
6681, 24.5151822842931, 86.91511863345826, 0.0
6682, 25.11472746796748, 87.78563366903751, 0.0
6683, 23.31436636929828, 86.85182406376495, 0.0
6684, 23.31609191694434, 85.17408856229981, 0.0
6685, 24.51690783193916, 85.23738313199313, 0.0
6686, 23.91563710061872, 86.04460359787905, 0.0
6687, 24.31097805528802, 83.71555050636955, 0.0
6688, 25.1181785632596, 84.43016266610722, 0.0
6689, 83.54050376948791, 116.7252166316007, 0.0
6690, 82.41535330478578, 118.0123288922945, 0.0
6691, 81.31816533936953, 116.8681486202119, 0.0
6692, 82.42933455442872, 116.7966826259063, 0.0
6693, 85.7628421996063, 116.5822846429895, 0.0
6694, 84.64224274316302, 117.8892442861562, 0.0
6695, 84.6516729845471, 116.6537506372951, 0.0
6696, 85.74853272509696, 119.0731193231846, 0.0
6697, 83.5170922784609, 119.1763565468499, 0.0
6698, 84.63281250177893, 119.1247379350173, 0.0
6699, 81.28565183182481, 119.2795937705153, 0.0
6700, 82.40137205514284, 119.2279751586826, 0.0
6701, 69.64608088937354, 44.3099214673837, 0.0
6702, 68.38451438817154, 43.02386351962086, 0.0
6703, 69.5241901963965, 41.85653220618683, 0.0
6704, 69.58513554288503, 43.08322683678527, 0.0
6705, 67.25732397610548, 44.1855209608409, 0.0
6706, 65.9832720787446, 42.90513688529205, 0.0
6707, 67.11046249081068, 41.74347944407201, 0.0
6708, 67.18389323345806, 42.96450020245646, 0.0
6709, 65.82392519729095, 40.46876924073715, 0.0
6710, 66.9636010055159, 39.30143792730313, 0.0
6711, 68.25013829903564, 40.57614813063797, 0.0
6712, 67.03703174816329, 40.52245868568757, 0.0
6713, 69.4022995034195, 39.40314294498995, 0.0
6714, 69.46324484990801, 40.62983757558838, 0.0
6715, 92.6571939110252, 143.7775893711096, 0.0
6716, 93.87693565584208, 142.5277778790275, 0.0
6717, 95.08993428527042, 143.765905252227, 0.0
6718, 93.8735640981478, 143.7717473116683, 0.0
6719, 90.22445353678, 143.7892734899922, 0.0
6720, 91.44611703163629, 142.5415114499904, 0.0
6721, 91.4408237239026, 143.7834314305509, 0.0
6722, 90.2369619022868, 141.3074829809514, 0.0
6723, 92.66585877645315, 141.2916999579082, 0.0
6724, 91.45141033936997, 141.2995914694299, 0.0
6725, 95.09475565061952, 141.2759169348651, 0.0
6726, 93.88030721353633, 141.2838084463867, 0.0
6727, 13.26133349983882, 125.1082208226217, 0.0
6728, 12.0738200631494, 123.8439229271555, 0.0
6729, 13.25913225193315, 122.6492794455113, 0.0
6730, 13.26023287588598, 123.8787501340665, 0.0
6731, 10.88964292342866, 125.0394593741422, 0.0
6732, 9.700994437676247, 123.7742685133335, 0.0
6733, 10.88517157739699, 122.5787320663468, 0.0
6734, 10.88740725041282, 123.8090957202445, 0.0
6735, 9.695388042581573, 121.3126482401957, 0.0
6736, 10.88070023136531, 120.1180047585515, 0.0
6737, 12.07048376618073, 121.3840885847026, 0.0
6738, 10.88293590438115, 121.3483684124492, 0.0
6739, 13.25693100402747, 120.1903380684008, 0.0
6740, 13.25803162798031, 121.4198087569561, 0.0
6741, 83.27156888036504, 73.38824757584365, 0.0
6742, 84.42857598172631, 72.17784908771198, 0.0
6743, 85.5989877305239, 73.47178649959841, 0.0
6744, 84.43527830544447, 73.43001703772103, 0.0
6745, 80.94415003020616, 73.30470865208889, 0.0
6746, 82.1015914020482, 72.08580563783045, 0.0
6747, 82.1078594552856, 73.34647811396627, 0.0
6748, 80.9320481942121, 70.77485917369046, 0.0
6749, 82.08905529557339, 69.56446068555877, 0.0
6750, 83.25859850340947, 70.87540714969876, 0.0
6751, 82.09532334881078, 70.82513316169461, 0.0
6752, 84.41517133429002, 69.67351318769383, 0.0
6753, 85.58514881260686, 70.97595512570706, 0.0
6754, 84.42187365800817, 70.9256811377029, 0.0
6755, 9.79727075789632, 146.317988413662, 0.0
6756, 8.583423128021575, 147.5515784293225, 0.0
6757, 7.355984907418229, 146.2905480046093, 0.0
6758, 8.569832537292973, 145.0569579889489, 0.0
6759, 8.576627832657275, 146.3042682091356, 0.0
6760, 9.812452754681352, 148.8115565811448, 0.0
6761, 8.597013718750176, 150.0461988696961, 0.0
6762, 7.367984092090399, 148.7862207178738, 0.0
6763, 8.590218423385876, 148.7988886495093, 0.0
6764, 6.150953650102791, 150.0219152793159, 0.0
6765, 4.923515429499444, 148.7608848546028, 0.0
6766, 6.140545871487053, 147.5251902931606, 0.0
6767, 6.145749760794922, 148.7735527862383, 0.0
6768, 4.914699056940139, 146.2631075955567, 0.0
6769, 6.130138092871315, 145.0284653070054, 0.0
6770, 6.135341982179184, 146.276827800083, 0.0
6771, 95.15608038161072, 106.2563959493824, 0.0
6772, 93.96946936176852, 107.5255303749487, 0.0
6773, 92.78257937940937, 106.2797065655382, 0.0
6774, 93.96932988051005, 106.2680512574603, 0.0
6775, 95.15755424258006, 108.7660238662029, 0.0
6776, 93.96974832428546, 110.0404886099256, 0.0
6777, 92.78166344347392, 108.7999951186714, 0.0
6778, 93.969608843027, 108.7830094924372, 0.0
6779, 91.5926626267269, 110.0797901805504, 0.0
6780, 90.40577264436777, 108.8339663711399, 0.0
6781, 91.59477346111477, 107.5541713092609, 0.0
6782, 91.59371804392083, 108.8169807449057, 0.0
6783, 90.40907837720803, 106.303017181694, 0.0
6784, 91.59582887830871, 106.2913618736161, 0.0
6785, 70.23731841579237, 173.9797368863102, 0.0
6786, 71.50250600277339, 172.7272545441318, 0.0
6787, 72.71848796598823, 173.9419726777594, 0.0
6788, 71.47790319089032, 173.9608547820348, 0.0
6789, 70.28810267699797, 171.5161664465215, 0.0
6790, 72.76611495231498, 171.4711421659359, 0.0
6791, 71.52710881465649, 171.4936543062287, 0.0
6792, 75.24412722763199, 171.4261178853504, 0.0
6793, 73.98209691552982, 172.6858602995636, 0.0
6794, 74.00512108997347, 171.4486300256431, 0.0
6795, 75.19965751618409, 173.9042084692086, 0.0
6796, 73.95907274108617, 173.923090573484, 0.0
6797, 18.64309669310932, 175.0857083206696, 0.0
6798, 17.38990704264767, 173.8235170489921, 0.0
6799, 18.61050014266586, 172.5935022785229, 0.0
6800, 18.62679841788759, 173.8396052995963, 0.0
6801, 16.16530071420638, 175.0569114527844, 0.0
6802, 14.91612429216782, 173.7913405477837, 0.0
6803, 16.1407306206091, 172.5579461439913, 0.0
6804, 16.15301566740774, 173.8074287983879, 0.0
6805, 14.89556742699363, 171.2889956056674, 0.0
6806, 16.11616052701182, 170.0589808351982, 0.0
6807, 17.36132372062729, 171.3279313735222, 0.0
6808, 16.12844557381046, 171.3084634895948, 0.0
6809, 18.57790359222239, 170.1012962363762, 0.0
6810, 18.59420186744413, 171.3473992574496, 0.0
6811, 77.97593822126501, 94.51647043497016, 0.0
6812, 78.91506166388638, 95.59849249504435, 0.0
6813, 77.89819093159855, 96.34871897719745, 0.0
6814, 76.95906748897718, 95.26669691712326, 0.0
6815, 77.93706457643178, 95.43259470608382, 0.0
6816, 80.04082372194088, 94.5727730808247, 0.0
6817, 80.87105583879557, 95.93028807296545, 0.0
6818, 79.74529378074106, 96.95600748718509, 0.0
6819, 79.89305875134097, 95.76439028400492, 0.0
6820, 80.46663457182908, 98.58901541139235, 0.0
6821, 79.44976383954125, 99.33924189354545, 0.0
6822, 78.72842304845324, 97.70623396933817, 0.0
6823, 79.59752881014116, 98.14762469036526, 0.0
6824, 77.82044364193209, 98.18096751942471, 0.0
6825, 76.9902115250774, 96.82345252728399, 0.0
6826, 77.85931728676532, 97.26484324831108, 0.0
6827, 15.71026420284529, 110.701815907893, 0.0
6828, 16.87060021308744, 111.9810471702218, 0.0
6829, 15.67105343759784, 113.0799684264614, 0.0
6830, 15.69065882022156, 111.8908921671772, 0.0
6831, 18.07748660073873, 110.8901313472757, 0.0
6832, 18.02359661116791, 113.2522729992571, 0.0
6833, 18.05054160595332, 112.0712021732664, 0.0
6834, 16.82404983567831, 114.3511942554967, 0.0
6835, 17.9966516163825, 114.4333438252478, 0.0
6836, 15.65144805497411, 114.2690446857456, 0.0
6837, 88.02479958206514, 98.67043973354035, 0.0
6838, 89.19703149337562, 97.41898716205492, 0.0
6839, 89.20141501256148, 98.68414025662844, 0.0
6840, 85.67156872107246, 98.64303868736417, 0.0
6841, 86.84211525589996, 97.38071256846001, 0.0
6842, 86.8481841515688, 98.65673921045226, 0.0
6843, 85.65774555325181, 96.08011185596095, 0.0
6844, 88.01434716721043, 96.12925999697458, 0.0
6845, 86.83604636023114, 96.10468592646777, 0.0
6846, 89.19264797418974, 96.15383406748141, 0.0
6847, 95.14468140375371, 91.2390784286203, 0.0
6848, 93.94850437325992, 92.46991107325276, 0.0
6849, 92.74668231910145, 91.20482967569048, 0.0
6850, 93.94285934959524, 89.97399703105802, 0.0
6851, 93.94568186142757, 91.2219540521554, 0.0
6852, 95.14804705402317, 93.73405028613251, 0.0
6853, 92.75460671616133, 93.70168590256773, 0.0
6854, 93.95132688509226, 93.71786809435012, 0.0
6855, 91.55278466200288, 92.43660450500545, 0.0
6856, 91.55788654723042, 93.68550371078534, 0.0
6857, 91.54258089154777, 89.93880609344566, 0.0
6858, 91.54768277677532, 91.18770529922557, 0.0
6859, 6.076434089340534, 85.07991809866748, 0.0
6860, 7.294711825701318, 86.34084437104374, 0.0
6861, 6.091124611959486, 87.56356598923554, 0.0
6862, 4.872846875598702, 86.30263971685929, 0.0
6863, 6.08377935065001, 86.3217420439515, 0.0
6864, 8.493380532770196, 85.1224479745312, 0.0
6865, 9.716576775803937, 86.3790490252282, 0.0
6866, 8.517908068735057, 87.59744542174076, 0.0
6867, 8.505644300752628, 86.35994669813596, 0.0
6868, 9.746022818441752, 88.8497212507585, 0.0
6869, 7.314320854993226, 88.82016703993256, 0.0
6870, 8.53017183671749, 88.83494414534553, 0.0
6871, 4.8826188915447, 88.7906128291066, 0.0
6872, 6.098469873268964, 88.80538993451958, 0.0
6873, 79.00819967168036, 34.78505831515727, 0.0
6874, 77.76424711409432, 33.51717881490283, 0.0
6875, 78.96928452633935, 32.306806912239, 0.0
6876, 78.98874209900985, 33.54593261369814, 0.0
6877, 76.56421813987305, 34.72315232304462, 0.0
6878, 75.31525714426324, 33.45967121731223, 0.0
6879, 76.51528611848451, 32.25369770917045, 0.0
6880, 76.53975212917878, 33.48842501610753, 0.0
6881, 75.26131668485091, 30.99461499796011, 0.0
6882, 76.46635409709594, 29.78424309529628, 0.0
6883, 77.72032353072953, 31.04332580650661, 0.0
6884, 76.49082010779023, 31.01897040223336, 0.0
6885, 78.93036938099831, 29.82855550932072, 0.0
6886, 78.94982695366883, 31.06768121077986, 0.0
6887, 24.25844336045136, 45.89467578074544, 0.0
6888, 23.04252492142644, 47.19563057083788, 0.0
6889, 21.87892843521497, 45.9630399620399, 0.0
6890, 23.0948468742399, 44.66208517194745, 0.0
6891, 23.06868589783317, 45.92885787139267, 0.0
6892, 24.20161534819785, 48.43507915010957, 0.0
6893, 22.99020296861298, 49.7291759697283, 0.0
6894, 21.83111254184157, 48.48972739045661, 0.0
6895, 23.01636394501971, 48.4624032702831, 0.0
6896, 20.62420622169675, 49.77696623960163, 0.0
6897, 19.46060973548529, 48.54437563080364, 0.0
6898, 20.66751605563011, 47.25713678165863, 0.0
6899, 20.64586113866343, 48.51705151063013, 0.0
6900, 19.4994135099786, 46.03140414333437, 0.0
6901, 20.71082588956346, 44.73730732371564, 0.0
6902, 20.68917097259678, 45.99722205268714, 0.0
6903, 9.6687627505145, 68.84852654036995, 0.0
6904, 10.86041627267392, 67.59255298829652, 0.0
6905, 12.02703833150313, 68.86822944936846, 0.0
6906, 10.84790054100882, 68.8583779948692, 0.0
6907, 9.688492771165969, 66.31694961407145, 0.0
6908, 10.88544773600412, 65.06090297515112, 0.0
6909, 12.05737123751208, 66.3365063493762, 0.0
6910, 10.87293200433902, 66.32672798172382, 0.0
6911, 13.25962764502897, 65.080386623609, 0.0
6912, 14.42624970385819, 66.35606308468095, 0.0
6913, 13.22399329634129, 67.61218281044815, 0.0
6914, 13.24181047068513, 66.34628471702858, 0.0
6915, 14.38531391249176, 68.88793235836698, 0.0
6916, 13.20617612199745, 68.87808090386771, 0.0
6917, 17.97923070839717, 130.2294262436479, 0.0
6918, 16.80025159708319, 128.9469289645497, 0.0
6919, 17.94974233819659, 127.7417554165796, 0.0
6920, 17.96448652329688, 128.9855908301138, 0.0
6921, 15.6463987229278, 130.1511019449547, 0.0
6922, 14.47178174465581, 128.8696052334214, 0.0
6923, 15.6256346188112, 127.6654322530164, 0.0
6924, 15.6360166708695, 128.9082670989856, 0.0
6925, 14.4553797735812, 126.3849361090482, 0.0
6926, 16.7751253599246, 126.4602587050463, 0.0
6927, 15.6152525667529, 126.4225974070473, 0.0
6928, 17.9349981530963, 126.4979200030454, 0.0
6929, 49.61477729628412, 154.1522198387327, 0.0
6930, 48.24046658169757, 154.4798798354664, 0.0
6931, 48.61856736268037, 153.4033463626932, 0.0
6932, 50.03948954506629, 156.0873434180538, 0.0
6933, 50.61098722988787, 154.9010933147722, 0.0
6934, 48.66517883047973, 156.4150034147874, 0.0
6935, 49.4679918602447, 157.2735935213353, 0.0
6936, 47.86236580071476, 155.5564133082395, 0.0
6937, 84.32496621332353, 99.92297134745078, 0.0
6938, 83.06910164645076, 98.61602704937826, 0.0
6939, 84.41570415419969, 97.33609438929165, 0.0
6940, 84.37033518376161, 98.62953286837121, 0.0
6941, 81.61793803000506, 99.9199098362208, 0.0
6942, 81.91779818827477, 97.28513262454982, 0.0
6943, 81.76786810913991, 98.6025212303853, 0.0
6944, 83.26440069602369, 96.0051999644632, 0.0
6945, 82.06772826740963, 95.96774401871431, 0.0
6946, 84.46107312463775, 96.04265591021206, 0.0
6947, 71.320886410522, 88.90891421533757, 0.0
6948, 70.27180490369634, 88.17686804089996, 0.0
6949, 71.23180621865745, 86.69524341166002, 0.0
6950, 71.27634631458974, 87.8020788134988, 0.0
6951, 71.40996660238652, 91.12258501901513, 0.0
6952, 70.32064763932829, 90.3049028903205, 0.0
6953, 71.36542650645426, 90.01574961717635, 0.0
6954, 69.280171411902, 91.6152556110464, 0.0
6955, 68.23108990507635, 90.88320943660878, 0.0
6956, 69.27156613250261, 89.57285671588289, 0.0
6957, 69.2758687722023, 90.59405616346463, 0.0
6958, 68.26272208190952, 88.9264464957023, 0.0
6959, 69.26296085310324, 87.53045782071936, 0.0
6960, 69.26726349280293, 88.55165726830113, 0.0
6961, 36.2056318491538, 180.2870131706425, 0.0
6962, 37.47789859696126, 181.5226709068933, 0.0
6963, 36.2309983808234, 182.7330044991366, 0.0
6964, 34.95873163301594, 181.4973467628857, 0.0
6965, 36.21831511498861, 181.5100088348895, 0.0
6966, 38.72617176067104, 180.3156907411814, 0.0
6967, 39.99706556090658, 181.5479950509009, 0.0
6968, 38.74879239719681, 182.7549752166128, 0.0
6969, 38.73748207893392, 181.5353329788971, 0.0
6970, 40.01831324986044, 183.9839260998011, 0.0
6971, 38.77141303372257, 185.1942596920443, 0.0
6972, 37.50189218105894, 183.9653088088561, 0.0
6973, 38.76010271545969, 183.9746174543286, 0.0
6974, 36.256364912493, 185.1789958276307, 0.0
6975, 34.98547111225746, 183.9466915179112, 0.0
6976, 36.2436816466582, 183.9560001633836, 0.0
6977, 7.449631435236234, 101.4222788575223, 0.0
6978, 6.176055934941302, 102.6343219761513, 0.0
6979, 4.924243137889876, 101.3311565692664, 0.0
6980, 6.186937286563055, 101.3767177133944, 0.0
6981, 9.975019732582592, 101.5134011457782, 0.0
6982, 8.68844752516242, 102.732855801422, 0.0
6983, 8.712325583909411, 101.4678400016502, 0.0
6984, 9.91426690796337, 104.0508442823365, 0.0
6985, 8.640691407668438, 105.2628874009655, 0.0
6986, 7.414872024867489, 103.944898920051, 0.0
6987, 8.66456946641543, 103.9978716011938, 0.0
6988, 6.154293231697795, 105.1495305016652, 0.0
6989, 4.915477141771608, 103.8389535577655, 0.0
6990, 6.165174583319548, 103.8919262389083, 0.0
6991, 84.55905866538143, 105.3319448363429, 0.0
6992, 83.27836791893935, 104.0956329657032, 0.0
6993, 84.4420124393525, 102.6274580918969, 0.0
6994, 84.50053555236696, 103.9797014641199, 0.0
6995, 82.20228770401397, 105.6421160109751, 0.0
6996, 80.83403265208415, 104.3274959688698, 0.0
6997, 81.91011286700953, 102.7810129235979, 0.0
6998, 82.05620028551175, 104.2115644672865, 0.0
6999, 80.45429350959193, 101.3880847100271, 0.0
7000, 83.07375738742266, 101.3128380497916, 0.0
7001, 81.7640254485073, 101.3504613799094, 0.0
7002, 84.38348932633801, 101.2752147196738, 0.0
7003, 95.15817384464955, 111.2768719887143, 0.0
7004, 93.96975574527688, 112.5557522830554, 0.0
7005, 92.78133022491278, 111.3193689042667, 0.0
7006, 93.96975203478118, 111.2981204464905, 0.0
7007, 95.15793918781921, 113.7889403169164, 0.0
7008, 92.78157972372598, 113.8378279223241, 0.0
7009, 93.96975945577259, 113.8133841196202, 0.0
7010, 91.59315420336188, 112.6014445435354, 0.0
7011, 91.59339999167936, 113.8622717250279, 0.0
7012, 91.59290841504439, 111.3406173620429, 0.0
7013, 52.47772927917934, 18.43303208619457, 0.0
7014, 53.74577739041399, 17.22295129386224, 0.0
7015, 55.01593013383141, 18.44510829644509, 0.0
7016, 53.74682970650538, 18.43907019131983, 0.0
7017, 49.93952842452727, 18.42095587594405, 0.0
7018, 51.2130413452284, 17.2120329051307, 0.0
7019, 51.20862885185331, 18.42699398106931, 0.0
7020, 49.95381822074394, 15.99219154558581, 0.0
7021, 51.22186633197859, 14.78211075325348, 0.0
7022, 52.48108945646305, 16.00195211279836, 0.0
7023, 51.2174538386035, 15.99707182919209, 0.0
7024, 53.74367275823121, 14.79071349894705, 0.0
7025, 55.00836069218216, 16.01171268001092, 0.0
7026, 53.7447250743226, 16.00683239640465, 0.0
7027, 71.92717481352959, 137.731684370858, 0.0
7028, 73.32384699077673, 139.1051328010313, 0.0
7029, 72.15834679054576, 140.5260110284884, 0.0
7030, 72.04276080203768, 139.1288476996732, 0.0
7031, 71.69600283651343, 134.9373577132277, 0.0
7032, 73.19146125811184, 136.3934013901411, 0.0
7033, 71.81158882502152, 136.3345210420428, 0.0
7034, 74.55453394704534, 135.1377136561643, 0.0
7035, 75.9512061242925, 136.5111620863376, 0.0
7036, 74.58813343535898, 137.7668498203144, 0.0
7037, 74.57133369120217, 136.4522817382393, 0.0
7038, 75.88601936825486, 139.0577030037476, 0.0
7039, 74.62173292367261, 140.3959859844645, 0.0
7040, 74.6049331795158, 139.0814179023895, 0.0
7041, 68.5593979322459, 142.0561735226157, 0.0
7042, 67.41534838384756, 143.3912976189794, 0.0
7043, 67.3542118898487, 142.1603954485755, 0.0
7044, 70.96977001704033, 141.8477296706959, 0.0
7045, 69.81370700134808, 143.2000564002541, 0.0
7046, 69.7645839746431, 141.9519515966558, 0.0
7047, 71.05600260315634, 144.3611419110871, 0.0
7048, 69.911953054758, 145.6962660074509, 0.0
7049, 68.66965745294974, 144.5351804966179, 0.0
7050, 69.86283002805304, 144.4481612038525, 0.0
7051, 67.5376213718453, 145.8531019597872, 0.0
7052, 67.47648487784643, 144.6221997893833, 0.0
7053, 7.37695912057452, 106.4479515317229, 0.0
7054, 6.12770050816494, 107.6361250946521, 0.0
7055, 4.905034619288216, 106.3377040645944, 0.0
7056, 6.140996869931368, 106.3928277981587, 0.0
7057, 9.848883621860825, 106.5581989988513, 0.0
7058, 8.585151334766906, 107.7432631296087, 0.0
7059, 8.612921371217672, 106.5030752652871, 0.0
7060, 9.77886987427495, 109.0354652953226, 0.0
7061, 7.335892722357325, 108.9314366925379, 0.0
7062, 8.557381298316137, 108.9834509939303, 0.0
7063, 4.892915570439699, 108.8274080897532, 0.0
7064, 6.114404146398512, 108.8794223911456, 0.0
7065, 95.14750711742475, 86.2369037268958, 0.0
7066, 93.944941009205, 87.47020841888133, 0.0
7067, 92.74445656059498, 86.19972449869013, 0.0
7068, 93.94598183900986, 86.21831411279297, 0.0
7069, 95.14450142488758, 88.7400295755414, 0.0
7070, 92.74329893391266, 88.70417587439795, 0.0
7071, 93.94390017940012, 88.72210272496967, 0.0
7072, 90.34209644293776, 88.66832217325447, 0.0
7073, 91.54281448530264, 87.43369195420675, 0.0
7074, 91.5426976884252, 88.6862490238262, 0.0
7075, 90.3414060037652, 86.16254527048449, 0.0
7076, 91.54293128218009, 86.18113488458731, 0.0
7077, 11.02185414645287, 107.9078499912162, 0.0
7078, 12.18254477351407, 109.2298730756127, 0.0
7079, 10.98070732389451, 109.1326691854677, 0.0
7080, 11.10414779156959, 105.4582116027134, 0.0
7081, 12.27711831616164, 106.8078625950783, 0.0
7082, 11.06300096901124, 106.6830307969648, 0.0
7083, 13.54466238340126, 105.7355031069088, 0.0
7084, 14.70535301046246, 107.0575261913053, 0.0
7085, 13.43780894322284, 108.1298856794748, 0.0
7086, 13.49123566331205, 106.9326943931918, 0.0
7087, 14.5862196727532, 109.4242808559028, 0.0
7088, 13.38438222313364, 109.3270769657578, 0.0
7089, 8.460198605836743, 70.10080404217223, 0.0
7090, 7.267782076077098, 68.825666409826, 0.0
7091, 8.476346220754856, 67.5733889080237, 0.0
7092, 8.468272413295798, 68.83709647509798, 0.0
7093, 6.062800337132694, 70.07378211947831, 0.0
7094, 4.866801401639695, 68.80280627928205, 0.0
7095, 6.071783140584099, 67.55469056962974, 0.0
7096, 6.067291738858398, 68.81423634455403, 0.0
7097, 4.872201799357747, 66.28787652158346, 0.0
7098, 6.080765944035505, 65.03559901978117, 0.0
7099, 7.280347285261858, 66.30241306782744, 0.0
7100, 6.076274542309803, 66.29514479470544, 0.0
7101, 8.492493835672969, 65.04597377387519, 0.0
7102, 8.484420028213915, 66.30968134094944, 0.0
7103, 95.13195940286576, 131.3305799794223, 0.0
7104, 93.91895003961227, 132.5955005292269, 0.0
7105, 92.72372976822322, 131.3765910272747, 0.0
7106, 93.92784458554449, 131.3535855033485, 0.0
7107, 95.1175079510827, 133.8178444619331, 0.0
7108, 92.70260303627738, 133.8569866482774, 0.0
7109, 93.91005549368006, 133.8374155551053, 0.0
7110, 90.28769812147205, 133.8961288346217, 0.0
7111, 91.50738276488835, 132.6380771463252, 0.0
7112, 91.4951505788747, 133.8765577414495, 0.0
7113, 90.31550013358068, 131.4226020751271, 0.0
7114, 91.51961495090195, 131.3995965512009, 0.0
7115, 12.07868464361308, 116.4899541014085, 0.0
7116, 10.88610318043989, 117.6654201043338, 0.0
7117, 10.88880465497717, 116.439127777225, 0.0
7118, 13.26468675617516, 117.7572996398616, 0.0
7119, 13.268564632249, 116.5407804255919, 0.0
7120, 12.07210529300196, 118.9327656427869, 0.0
7121, 13.26080888010131, 118.9738188541312, 0.0
7122, 10.8834017059026, 118.8917124314427, 0.0
7123, 12.47728068159736, 104.3025140057036, 0.0
7124, 13.97291275342745, 103.1211946278654, 0.0
7125, 13.75878756841436, 104.4283488673871, 0.0
7126, 11.28739979799114, 102.8951466853267, 0.0
7127, 11.19577379478037, 104.17667914402, 0.0
7128, 12.78303186982122, 101.7138273074886, 0.0
7129, 11.37902580120191, 101.6136142266334, 0.0
7130, 14.18703793844054, 101.8140403883438, 0.0
7131, 7.271030907817569, 81.37469813524764, 0.0
7132, 6.068719729404229, 82.59334504386578, 0.0
7133, 4.858694191054583, 81.32541889768223, 0.0
7134, 6.064862549436076, 81.35005851646494, 0.0
7135, 9.683367624580555, 81.42397737281306, 0.0
7136, 8.482593021722774, 82.64037449419729, 0.0
7137, 8.477199266199063, 81.39933775403034, 0.0
7138, 9.695691711183539, 83.90380106591306, 0.0
7139, 7.280281843309433, 83.85902140281544, 0.0
7140, 8.487986777246487, 83.88141123436426, 0.0
7141, 4.864871975435329, 83.81424173971783, 0.0
7142, 6.072576909372382, 83.83663157126665, 0.0
7143, 95.13364420135771, 76.24228157321876, 0.0
7144, 93.93490463994618, 77.46742891420197, 0.0
7145, 92.73075027873793, 76.19533448707351, 0.0
7146, 93.92948984014947, 74.9701871460903, 0.0
7147, 93.93219724004783, 76.21880803014614, 0.0
7148, 95.13812466770919, 78.74031885121238, 0.0
7149, 92.73709941197987, 78.69178074530328, 0.0
7150, 93.93761203984454, 78.71604979825783, 0.0
7151, 91.53294505077162, 77.4196863181748, 0.0
7152, 91.5365867841152, 78.66751169234871, 0.0
7153, 91.52566158408445, 74.92403556982697, 0.0
7154, 91.52930331742803, 76.17186094400088, 0.0
7155, 10.94170953070897, 87.63588521756535, 0.0
7156, 12.16064679130055, 88.88155568519194, 0.0
7157, 10.95333480487115, 88.86563846797523, 0.0
7158, 10.91845898238459, 85.17637871674557, 0.0
7159, 12.14359173728962, 86.43321490908271, 0.0
7160, 10.93008425654678, 86.40613196715546, 0.0
7161, 13.35166943818372, 85.2417103253106, 0.0
7162, 14.57060669877531, 86.48738079293722, 0.0
7163, 13.36252899788121, 87.67888537670932, 0.0
7164, 13.35709921803246, 86.46029785100995, 0.0
7165, 14.57527076415935, 88.91339011962539, 0.0
7166, 13.36795877772995, 88.89747290240868, 0.0
7167, 70.07863492679337, 183.8466857094124, 0.0
7168, 71.34046850881487, 182.6025386912159, 0.0
7169, 72.5713041737413, 183.8317227495368, 0.0
7170, 71.3094705917198, 185.0758697677333, 0.0
7171, 71.32496955026734, 183.8392042294746, 0.0
7172, 70.11088100310434, 181.3756430067867, 0.0
7173, 72.60105393162046, 181.3561032991279, 0.0
7174, 71.35596746736238, 181.3658731529572, 0.0
7175, 75.09122686013657, 181.3365635914691, 0.0
7176, 73.83188959654689, 182.5852873574487, 0.0
7177, 73.84614039587852, 181.3463334452985, 0.0
7178, 75.06397342068922, 183.8167597896612, 0.0
7179, 73.80338799788365, 185.0631951817493, 0.0
7180, 73.81763879721527, 183.824241269599, 0.0
7181, 13.51600078566155, 42.40062163444881, 0.0
7182, 12.30759265059762, 41.1690680249456, 0.0
7183, 13.54027514212926, 39.90933401100915, 0.0
7184, 13.5281379638954, 41.15497782272898, 0.0
7185, 13.49172642919383, 44.89190925788848, 0.0
7186, 12.28742765229856, 43.66069568011605, 0.0
7187, 13.50386360742769, 43.64626544616866, 0.0
7188, 11.06296387710423, 44.92110975751406, 0.0
7189, 9.854555742040311, 43.68955614801085, 0.0
7190, 11.07901951723464, 42.42914207061283, 0.0
7191, 11.07099169716944, 43.67512591406344, 0.0
7192, 9.86650202400206, 41.19724842937883, 0.0
7193, 11.09507515736504, 39.93717438371159, 0.0
7194, 11.08704733729984, 41.18315822716221, 0.0
7195, 15.75983796583914, 57.44300293507555, 0.0
7196, 16.94838149022489, 58.7321199684856, 0.0
7197, 15.74649390117282, 58.72274112388434, 0.0
7198, 15.78652609517177, 54.88352655745796, 0.0
7199, 16.97020692515949, 56.1611346453294, 0.0
7200, 15.77318203050545, 56.16326474626675, 0.0
7201, 18.1757131900818, 54.86775741004465, 0.0
7202, 19.36425671446756, 56.1568744434547, 0.0
7203, 18.15875044954524, 57.45025167873945, 0.0
7204, 18.16723181981352, 56.15900454439205, 0.0
7205, 19.35215666832904, 58.75087765768811, 0.0
7206, 18.15026907927697, 58.74149881308685, 0.0
7207, 77.44756173365626, 64.34847940765327, 0.0
7208, 78.60722659512032, 65.66095102254442, 0.0
7209, 77.48659114185978, 66.84613360838858, 0.0
7210, 76.32692628039571, 65.53366199349745, 0.0
7211, 77.46707643775802, 65.59730650802095, 0.0
7212, 79.7323228808109, 64.48127664074538, 0.0
7213, 80.88752690984492, 65.78824005159137, 0.0
7214, 79.76243062415435, 66.96791443339042, 0.0
7215, 79.74737675248262, 65.7245955370679, 0.0
7216, 80.91317382075836, 68.26936964019129, 0.0
7217, 79.79253836749781, 69.45455222603545, 0.0
7218, 78.6417951708938, 68.1530970192346, 0.0
7219, 79.77748449582607, 68.21123332971294, 0.0
7220, 77.52562055006328, 69.3437878091239, 0.0
7221, 76.37041652102926, 68.03682439827789, 0.0
7222, 77.50610584596153, 68.09496070875623, 0.0
7223, 28.66866808819339, 180.1865173294173, 0.0
7224, 27.39719841809541, 178.9364362082704, 0.0
7225, 28.62301631572602, 177.7252860356632, 0.0
7226, 29.894485985824, 178.97536715681, 0.0
7227, 28.6458422019597, 178.9559016825402, 0.0
7228, 26.16952037321312, 180.151359837186, 0.0
7229, 24.89991085036682, 178.8975052597309, 0.0
7230, 26.1275888952491, 177.6825816308153, 0.0
7231, 26.14855463423111, 178.9169707340007, 0.0
7232, 24.85983951965446, 176.424953597052, 0.0
7233, 27.35340679287971, 176.4714314582081, 0.0
7234, 26.10662315626709, 176.4481925276301, 0.0
7235, 29.84697406610497, 176.5179093193642, 0.0
7236, 28.60019042949234, 176.4946703887862, 0.0
7237, 16.85048860492067, 133.9757462890437, 0.0
7238, 18.00954733777565, 132.7521851752724, 0.0
7239, 18.02470565246489, 134.0135646410847, 0.0
7240, 14.50205450983221, 133.9001095849617, 0.0
7241, 15.66631394589356, 132.6756526063201, 0.0
7242, 15.67627155737644, 133.9379279370027, 0.0
7243, 14.48733999007282, 131.374663058726, 0.0
7244, 16.82537267874854, 131.4520914925488, 0.0
7245, 15.65635633441068, 131.4133772756374, 0.0
7246, 17.99438902308641, 131.4908057094602, 0.0
7247, 15.89755897836731, 92.5034064404341, 0.0
7248, 17.12959521813672, 93.62014251745896, 0.0
7249, 15.96482050151888, 93.69185823253781, 0.0
7250, 15.76303593206418, 90.12650285622671, 0.0
7251, 17.00884445089689, 91.29112145880896, 0.0
7252, 15.83029745521574, 91.3149546483304, 0.0
7253, 18.13390220248979, 90.12671900274118, 0.0
7254, 19.3659384422592, 91.24345507976604, 0.0
7255, 18.2408806906663, 92.40785753583381, 0.0
7256, 18.18739144657805, 91.26728826928749, 0.0
7257, 19.4591446513724, 93.47671108730128, 0.0
7258, 18.29436993475456, 93.54842680238012, 0.0
7259, 84.21208418383571, 54.82424373840175, 0.0
7260, 82.99733365927842, 53.54316506794886, 0.0
7261, 84.1649060324468, 52.34012958144988, 0.0
7262, 84.18849510814127, 53.58218665992581, 0.0
7263, 81.83460942880072, 54.74468206271861, 0.0
7264, 80.61501076155275, 53.46512188399493, 0.0
7265, 81.77773499203046, 52.26360488922518, 0.0
7266, 81.8061722104156, 53.50414347597189, 0.0
7267, 80.55328818209183, 50.98556320223072, 0.0
7268, 82.94530736519884, 51.0605694027262, 0.0
7269, 81.74929777364534, 51.02306630247845, 0.0
7270, 84.14131695675233, 51.09807250297394, 0.0
7271, 4.875117239368011, 123.7327754148843, 0.0
7272, 6.080189680956452, 122.504331668869, 0.0
7273, 7.288055838522129, 123.7535219641089, 0.0
7274, 6.082983396933688, 124.9819657101242, 0.0
7275, 6.081586538945071, 123.7431486894966, 0.0
7276, 4.873261083096589, 121.2498034509233, 0.0
7277, 7.28432456283908, 121.2812258455595, 0.0
7278, 6.078792822967834, 121.2655146482414, 0.0
7279, 8.492190720404757, 122.5304161407994, 0.0
7280, 8.489856302710326, 121.2969370428776, 0.0
7281, 8.49685955579362, 124.997374336643, 0.0
7282, 8.494525138099188, 123.7638952387212, 0.0
7283, 74.11322131632772, 65.39407630570216, 0.0
7284, 73.04928196146827, 66.58591655162002, 0.0
7285, 73.00636883429374, 65.32428346180451, 0.0
7286, 75.24887492096441, 66.71880098113178, 0.0
7287, 75.22007379836172, 65.46386914959982, 0.0
7288, 75.3064771661698, 69.22866464419576, 0.0
7289, 74.18493556610495, 67.91064122704964, 0.0
7290, 75.27767604356711, 67.97373281266377, 0.0
7291, 73.13510821581733, 69.10918273125102, 0.0
7292, 73.0921950886428, 67.8475496414355, 0.0
7293, 87.90700319327473, 63.60196920526023, 0.0
7294, 89.08506464529664, 62.39804194475241, 0.0
7295, 90.28610723964412, 63.67503812701229, 0.0
7296, 89.09655521645944, 63.63850366613626, 0.0
7297, 86.70404378448887, 62.32623115399639, 0.0
7298, 86.71745117009003, 63.56543474438419, 0.0
7299, 86.67722901328659, 59.84782397322081, 0.0
7300, 87.8821052365108, 61.12230389348858, 0.0
7301, 86.69063639888773, 61.0870275636086, 0.0
7302, 89.06208350297106, 59.91711850198472, 0.0
7303, 90.26504291175691, 61.19285655324855, 0.0
7304, 89.07357407413386, 61.15758022336856, 0.0
7305, 85.52820867339207, 133.9715901691352, 0.0
7306, 86.73824786724849, 132.718929429088, 0.0
7307, 87.90795339743207, 133.9338595018784, 0.0
7308, 86.69791420357564, 135.1865202419256, 0.0
7309, 86.71808103541207, 133.9527248355068, 0.0
7310, 85.57271955425298, 131.5059780051832, 0.0
7311, 86.77858153092133, 130.2513386162503, 0.0
7312, 87.94410984391683, 131.4642900401551, 0.0
7313, 86.75841469908491, 131.4851340226691, 0.0
7314, 89.14579460339712, 130.2076720023366, 0.0
7315, 89.11381537410041, 132.6792201129456, 0.0
7316, 89.12980498874876, 131.4434460576411, 0.0
7317, 89.0818361448037, 135.1507682235545, 0.0
7318, 89.09782575945206, 133.91499416825, 0.0
7319, 95.15577350474427, 121.3255068555702, 0.0
7320, 93.95904995091828, 122.6055148920496, 0.0
7321, 92.76783328368685, 121.3775555349912, 0.0
7322, 93.96180339421556, 121.3515311952807, 0.0
7323, 95.1499965535753, 123.8329607582421, 0.0
7324, 92.76259646166673, 123.8860364193947, 0.0
7325, 93.95629650762103, 123.8594985888184, 0.0
7326, 91.5713797944353, 122.6580770623363, 0.0
7327, 91.56889641571243, 123.9125742499709, 0.0
7328, 91.57386317315814, 121.4035798747017, 0.0
7329, 80.24606819360557, 166.3808203064237, 0.0
7330, 79.00022095367467, 167.6451962586837, 0.0
7331, 77.79639240776217, 166.4247209897713, 0.0
7332, 79.0422396476931, 165.1603450375114, 0.0
7333, 79.02123030068388, 166.4027706480975, 0.0
7334, 80.20789983237276, 168.8676328412531, 0.0
7335, 78.95820225965625, 170.1300474798561, 0.0
7336, 77.75052338095816, 168.9076108972868, 0.0
7337, 78.97921160666546, 168.8876218692699, 0.0
7338, 76.49697547545603, 170.1680642222329, 0.0
7339, 76.54669483504566, 167.6871356283744, 0.0
7340, 76.52183515525084, 168.9275999253036, 0.0
7341, 76.59641419463529, 165.2062070345159, 0.0
7342, 76.57155451484047, 166.4466713314451, 0.0
7343, 12.13232586826992, 83.9627535435152, 0.0
7344, 13.34961645544249, 82.74274923932194, 0.0
7345, 13.35064294681311, 83.99222978231629, 0.0
7346, 10.90955859706886, 82.69017589268269, 0.0
7347, 10.91400878972673, 83.93327730471414, 0.0
7348, 10.90065821175313, 80.20397306861979, 0.0
7349, 12.12684918424144, 81.47017158848942, 0.0
7350, 10.905108404411, 81.44707448065124, 0.0
7351, 13.34756347270127, 80.24378815333327, 0.0
7352, 13.34858996407188, 81.4932686963276, 0.0
7353, 91.41657868628457, 52.47798969477178, 0.0
7354, 92.64609153558608, 53.73563471206894, 0.0
7355, 91.43542096956139, 54.97520528397553, 0.0
7356, 91.42599982792296, 53.72659748937365, 0.0
7357, 91.39773640300774, 49.98077410556804, 0.0
7358, 92.62989224336134, 51.23823469475347, 0.0
7359, 91.40715754464614, 51.22938190016991, 0.0
7360, 93.8458487914902, 49.99829526662343, 0.0
7361, 95.0753616407917, 51.25594028392059, 0.0
7362, 93.85940509266285, 52.49587971205064, 0.0
7363, 93.85262694207651, 51.24708748933703, 0.0
7364, 95.08627495091228, 53.75370915745953, 0.0
7365, 93.87296139383551, 54.99346415747784, 0.0
7366, 93.8661832432492, 53.74467193476423, 0.0
7367, 19.42348257056318, 51.06561423998821, 0.0
7368, 18.21030361959552, 52.34246435201585, 0.0
7369, 17.03171509814157, 51.09402140601466, 0.0
7370, 18.24489404910923, 49.81717129398703, 0.0
7371, 18.22759883435237, 51.07981782300144, 0.0
7372, 19.38803201521227, 53.59511997088807, 0.0
7373, 16.99798479446505, 53.61510179117243, 0.0
7374, 18.19300840483866, 53.60511088103026, 0.0
7375, 14.60793757371782, 53.63508361145677, 0.0
7376, 15.8193962730111, 52.36665884517124, 0.0
7377, 15.80296118409144, 53.6250927013146, 0.0
7378, 14.63994762571996, 51.12242857204109, 0.0
7379, 15.85226645085042, 49.84979113288452, 0.0
7380, 15.83583136193076, 51.10822498902789, 0.0
7381, 9.904998891522137, 163.7453922713239, 0.0
7382, 11.12476293357259, 162.5102003925647, 0.0
7383, 12.36178827392917, 163.7719911151738, 0.0
7384, 11.14202423187871, 165.0071829939331, 0.0
7385, 11.13339358272565, 163.7586916932489, 0.0
7386, 9.890468531517664, 161.2473620841458, 0.0
7387, 11.10750163526647, 160.0132177911962, 0.0
7388, 12.3417960373214, 161.2760560996151, 0.0
7389, 11.11613228441953, 161.2617090918804, 0.0
7390, 13.55609820276856, 160.0429593924752, 0.0
7391, 14.79312354312513, 161.3047501150843, 0.0
7392, 13.57882137767798, 162.5378468222243, 0.0
7393, 13.56745979022327, 161.2904031073497, 0.0
7394, 14.8185776563362, 163.7985899590238, 0.0
7395, 13.6015445525874, 165.0327342519734, 0.0
7396, 13.59018296513269, 163.7852905370988, 0.0
7397, 16.99937081715332, 107.3063966944105, 0.0
7398, 15.80499601015369, 108.3552462645362, 0.0
7399, 15.85236191380789, 107.1819614428579, 0.0
7400, 18.12341534724541, 108.5839317464007, 0.0
7401, 18.14637972049875, 107.4308319459631, 0.0
7402, 16.92904054024578, 109.6327813165264, 0.0
7403, 18.10045097399207, 109.7370315468382, 0.0
7404, 15.75763010649949, 109.5285310862146, 0.0
7405, 95.13302242709503, 71.23702444353795, 0.0
7406, 93.92938689874006, 72.46719897441835, 0.0
7407, 92.72564842897566, 71.19438533362683, 0.0
7408, 93.92933542803534, 71.21570488858238, 0.0
7409, 95.13194345448633, 73.74118343732728, 0.0
7410, 92.7269332844032, 73.69620268318137, 0.0
7411, 93.92943836944477, 73.71869306025432, 0.0
7412, 90.32192311432004, 73.65122192903544, 0.0
7413, 91.5231948146388, 72.42338904238984, 0.0
7414, 91.52442819936162, 73.6737123061084, 0.0
7415, 90.31827443085629, 71.15174622371572, 0.0
7416, 91.52196142991599, 71.17306577867127, 0.0
7417, 48.60310488819822, 29.25896769109708, 0.0
7418, 47.30990148266231, 28.06215428692058, 0.0
7419, 48.60597103941492, 26.85969144378554, 0.0
7420, 49.89917444495083, 28.05650484796203, 0.0
7421, 48.60453796380656, 28.05932956744131, 0.0
7422, 46.00640363211735, 29.2648784446372, 0.0
7423, 44.72062852037379, 28.06780372587914, 0.0
7424, 46.02412637091875, 26.86507956816253, 0.0
7425, 46.01526500151805, 28.06497900639986, 0.0
7426, 44.74577955296752, 25.6677435348229, 0.0
7427, 46.04184910972014, 24.46528069168786, 0.0
7428, 47.32019592767136, 25.66261672502748, 0.0
7429, 46.03298774031944, 25.6651801299252, 0.0
7430, 48.60883719063164, 24.460415196474, 0.0
7431, 49.89461230237521, 25.65748991523205, 0.0
7432, 48.60740411502329, 25.66005332012977, 0.0
7433, 46.24153498123588, 4.95486194992946, 0.0
7434, 47.4875849836771, 6.187137650145298, 0.0
7435, 46.23106130810399, 7.420688722589405, 0.0
7436, 44.98501130566278, 6.188413022373567, 0.0
7437, 46.23629814466993, 6.187775336259432, 0.0
7438, 48.74262210390904, 4.953724668817989, 0.0
7439, 48.73512154145946, 7.419275259244338, 0.0
7440, 48.73887182268426, 6.186499964031163, 0.0
7441, 48.72762097900988, 9.884825849670687, 0.0
7442, 47.47859786588636, 8.652826331688445, 0.0
7443, 48.73137126023467, 8.65205055445751, 0.0
7444, 46.22058763497211, 9.886515495249352, 0.0
7445, 44.97305107718974, 8.654377886150312, 0.0
7446, 46.22582447153805, 8.653602108919378, 0.0
7447, 76.08204122707585, 133.9906407584976, 0.0
7448, 77.35331185311819, 132.7554471391655, 0.0
7449, 78.45811579356197, 134.0089055512231, 0.0
7450, 77.18684516751964, 135.2440991705553, 0.0
7451, 77.27007851031891, 133.9997731548604, 0.0
7452, 76.27852467660492, 131.4961390202277, 0.0
7453, 78.59456571523, 131.5261032267134, 0.0
7454, 77.43654519591746, 131.5111211234706, 0.0
7455, 80.91060675385509, 131.5560674331991, 0.0
7456, 79.69936965567379, 132.779561638771, 0.0
7457, 79.75258623454255, 131.5410853299562, 0.0
7458, 80.8341903600481, 134.0271703439487, 0.0
7459, 79.59293649793628, 135.2565142564007, 0.0
7460, 79.64615307680504, 134.0180379475859, 0.0
7461, 95.053706066171, 156.2598769831141, 0.0
7462, 93.8198670095197, 157.5153424934458, 0.0
7463, 92.59423136860578, 156.2693285912402, 0.0
7464, 93.8280704252571, 155.0138630809085, 0.0
7465, 93.8239687173884, 156.2646027871771, 0.0
7466, 95.04765821989132, 158.7608498371537, 0.0
7467, 93.81166359378227, 160.0168219059831, 0.0
7468, 92.58387238341065, 158.7713145622751, 0.0
7469, 93.81576530165098, 158.7660821997144, 0.0
7470, 91.3457221878439, 160.0277931896021, 0.0
7471, 90.12008654692998, 158.7817792873965, 0.0
7472, 91.35823674249673, 157.5253006600695, 0.0
7473, 91.3519794651703, 158.7765469248358, 0.0
7474, 90.13475667104055, 156.2787801993663, 0.0
7475, 91.37075129714958, 155.022808130537, 0.0
7476, 91.36449401982316, 156.2740543953032, 0.0
7477, 75.04222631837996, 186.2997238318304, 0.0
7478, 73.78645634410984, 187.5475917374646, 0.0
7479, 72.54761802361352, 186.3110630873835, 0.0
7480, 73.79492217099674, 186.305393459607, 0.0
7481, 75.02598555320873, 188.7854557179766, 0.0
7482, 73.76952469033603, 190.0319882931799, 0.0
7483, 72.52999548123714, 188.794124312668, 0.0
7484, 73.77799051722293, 188.7897900153223, 0.0
7485, 71.27284372976186, 190.0393215574405, 0.0
7486, 70.03400540926555, 188.8027929073594, 0.0
7487, 71.29115716074082, 187.5575956625869, 0.0
7488, 71.28200044525134, 188.7984586100137, 0.0
7489, 70.0530097288471, 186.3224023429366, 0.0
7490, 71.3003138762303, 186.3167327151601, 0.0
7491, 80.17351532063654, 171.3550040201478, 0.0
7492, 78.92413433511456, 172.6155174930408, 0.0
7493, 77.70882127413427, 171.3905609527491, 0.0
7494, 78.94116829738542, 171.3727824864484, 0.0
7495, 80.1429146583969, 173.8429338431081, 0.0
7496, 78.89006641057286, 175.1009875062256, 0.0
7497, 77.6712860872905, 173.8735711561583, 0.0
7498, 78.9071003728437, 173.8582524996332, 0.0
7499, 76.41497057716438, 175.1291650095003, 0.0
7500, 76.4559730263102, 172.6486146158666, 0.0
7501, 76.4354718017373, 173.8888898126834, 0.0
7502, 76.47647425088311, 171.4083394190497, 0.0
7503, 4.853651484491199, 73.82588932396018, 0.0
7504, 6.057473168727832, 72.58800549534826, 0.0
7505, 7.255967684559602, 73.86434504260629, 0.0
7506, 6.054809584525401, 73.84511718328324, 0.0
7507, 4.860617963350846, 71.31547721340763, 0.0
7508, 7.25965554250968, 71.34631040141895, 0.0
7509, 6.060136752930264, 71.33089380741328, 0.0
7510, 8.45815005834145, 72.62264994867697, 0.0
7511, 8.459174332089097, 71.36172699542459, 0.0
7512, 8.457125784593805, 73.88357290192933, 0.0
7513, 95.10638624391618, 61.25210508586648, 0.0
7514, 93.90181372661829, 62.48331576682592, 0.0
7515, 92.68571457783653, 61.2224808195575, 0.0
7516, 93.89028709513445, 59.99127013859806, 0.0
7517, 93.89605041087637, 61.23729295271198, 0.0
7518, 95.11473364326557, 63.74743873224902, 0.0
7519, 92.70042044145484, 63.71123842963067, 0.0
7520, 93.9075770423602, 63.72933858093984, 0.0
7521, 91.4843212926731, 62.45040348236225, 0.0
7522, 91.49326384054949, 63.69313827832147, 0.0
7523, 91.46643619692034, 59.9649338904438, 0.0
7524, 91.47537874479673, 61.20766868640303, 0.0
7525, 81.97347493059885, 135.2481404122703, 0.0
7526, 83.1303447122511, 136.4670045723276, 0.0
7527, 81.92593480643744, 137.7194423247147, 0.0
7528, 80.76906502478519, 136.5005781646576, 0.0
7529, 81.94970486851814, 136.4837913684926, 0.0
7530, 84.32846046550736, 135.2189776381642, 0.0
7531, 85.49162439971701, 136.4334309799976, 0.0
7532, 84.29350864646074, 137.6814579141609, 0.0
7533, 84.31098455598405, 136.4502177761626, 0.0
7534, 85.46296673322777, 138.8915004377704, 0.0
7535, 84.25855682741411, 140.1439381901576, 0.0
7536, 83.08909874064707, 138.9338956665481, 0.0
7537, 84.27603273693742, 138.9126980521592, 0.0
7538, 81.878394682276, 140.1907442371592, 0.0
7539, 80.71523074806638, 138.9762908953258, 0.0
7540, 81.90216474435672, 138.9550932809369, 0.0
7541, 9.89477844326337, 36.20957337568825, 0.0
7542, 8.654160245295063, 37.46375779647054, 0.0
7543, 7.425957217246618, 36.22279571899188, 0.0
7544, 8.666575415214925, 34.96861129820959, 0.0
7545, 8.660367830254994, 36.21618454734007, 0.0
7546, 9.879909591076412, 38.70392083860463, 0.0
7547, 8.641745075375198, 39.95890429473148, 0.0
7548, 7.41599572959385, 38.7187412525974, 0.0
7549, 8.64795266033513, 38.71133104560101, 0.0
7550, 6.180284896159733, 39.97452374406882, 0.0
7551, 4.952081868111288, 38.73356166659016, 0.0
7552, 6.187792701545406, 37.47777917511874, 0.0
7553, 6.184038798852569, 38.72615145959378, 0.0
7554, 4.957135991229866, 36.23601806229553, 0.0
7555, 6.195300506931079, 34.98103460616866, 0.0
7556, 6.191546604238242, 36.2294068906437, 0.0
7557, 7.406699983560122, 41.21358013379314, 0.0
7558, 6.173313030518576, 42.46896822793178, 0.0
7559, 4.946897943118186, 41.22991183820745, 0.0
7560, 6.176798963339154, 41.22174598600029, 0.0
7561, 8.631456932186982, 42.45192426844049, 0.0
7562, 8.636601003781092, 41.20541428158599, 0.0
7563, 8.621168788998766, 44.94494424214948, 0.0
7564, 7.398069979145436, 43.70731236257912, 0.0
7565, 8.626312860592874, 43.69843425529498, 0.0
7566, 6.166341164877419, 44.96341271179474, 0.0
7567, 4.941584216250559, 43.7250685771474, 0.0
7568, 6.169827097697997, 43.71619046986326, 0.0
7569, 76.39135058729025, 70.60687988316072, 0.0
7570, 75.29818202243581, 71.87007127423223, 0.0
7571, 74.21330860131535, 70.49185603526728, 0.0
7572, 75.30232959430282, 70.549367959214, 0.0
7573, 76.38972847917873, 73.24382844814593, 0.0
7574, 75.28988687870184, 74.51147790426873, 0.0
7575, 74.19834042195892, 73.13772073035506, 0.0
7576, 75.29403445056882, 73.19077458925048, 0.0
7577, 73.09182578585956, 74.40982825152915, 0.0
7578, 72.00695236473908, 73.03161301256418, 0.0
7579, 73.11346700083844, 71.75950549139009, 0.0
7580, 73.10264639334899, 73.08466687145962, 0.0
7581, 72.03526661534042, 70.37683218737385, 0.0
7582, 73.12428760832789, 70.43434411132054, 0.0
7583, 42.46981233985672, 8.662522954871912, 0.0
7584, 43.72771328422407, 7.424679074829001, 0.0
7585, 43.72143170852323, 8.658450420511112, 0.0
7586, 39.9665736025237, 8.670668023593514, 0.0
7587, 41.2250774698197, 7.431246315963123, 0.0
7588, 41.21819297119021, 8.666595489232712, 0.0
7589, 39.98094552271134, 6.198391849466855, 0.0
7590, 41.23884646707869, 4.960547969423944, 0.0
7591, 42.48297841418706, 6.193402435920211, 0.0
7592, 41.2319619684492, 6.195897142693534, 0.0
7593, 43.74027643562577, 4.957136383464777, 0.0
7594, 43.73399485992492, 6.190907729146888, 0.0
7595, 22.92554124405968, 145.4563892258888, 0.0
7596, 21.71996676539607, 144.1641651284559, 0.0
7597, 22.87857404782871, 142.9520935329118, 0.0
7598, 24.08414852649231, 144.2443176303448, 0.0
7599, 22.9020576459442, 144.2042413794003, 0.0
7600, 20.55953663103683, 145.3736355570759, 0.0
7601, 19.35578500429984, 144.084012626567, 0.0
7602, 20.51621513865908, 142.874542197947, 0.0
7603, 20.53787588484796, 144.1240888775114, 0.0
7604, 19.31428636384869, 141.5875204343621, 0.0
7605, 21.67482242109172, 141.6624706024029, 0.0
7606, 20.4945543924702, 141.6249955183825, 0.0
7607, 24.03535847833475, 141.7374207704438, 0.0
7608, 22.85509044971323, 141.6999456864234, 0.0
7609, 21.17422987215649, 69.34647770699421, 0.0
7610, 22.63197198900967, 68.22713238946996, 0.0
7611, 23.39118329745025, 69.6825101696466, 0.0
7612, 22.28270658480336, 69.5144939383204, 0.0
7613, 18.95727644686274, 69.0104452443418, 0.0
7614, 20.24022848306841, 67.9208286225505, 0.0
7615, 20.06575315950961, 69.178461475668, 0.0
7616, 19.13143701333283, 66.52490823383974, 0.0
7617, 21.69797059992159, 66.80148330502625, 0.0
7618, 20.41470380662721, 66.66319576943299, 0.0
7619, 24.26450418651035, 67.07805837621275, 0.0
7620, 22.98123739321597, 66.9397708406195, 0.0
7621, 4.87217473132279, 128.7193871332228, 0.0
7622, 6.081468443251916, 127.4781237617304, 0.0
7623, 7.289247201499272, 128.733018441844, 0.0
7624, 6.079953489570146, 129.9742818133365, 0.0
7625, 6.080710966411031, 128.7262027875334, 0.0
7626, 4.874755122110077, 126.2226366423175, 0.0
7627, 7.289696718075526, 126.2374528295371, 0.0
7628, 6.082225920092803, 126.2300447359273, 0.0
7629, 9.704638314040974, 126.2522690167567, 0.0
7630, 8.497475476322881, 127.4923475096508, 0.0
7631, 8.497167516058248, 126.2448609231469, 0.0
7632, 9.706319671675754, 128.7466497504653, 0.0
7633, 8.498091396852145, 129.9873206826585, 0.0
7634, 8.497783436587513, 128.7398340961546, 0.0
7635, 25.08125781563371, 135.4196291695907, 0.0
7636, 26.3207355475221, 136.7247186782585, 0.0
7637, 25.15098112242416, 137.9779592045799, 0.0
7638, 25.11611946902893, 136.6987941870853, 0.0
7639, 27.48707337497639, 135.4538832133351, 0.0
7640, 28.72996770450845, 136.7765676606047, 0.0
7641, 27.56362987705415, 138.0474031255281, 0.0
7642, 27.52535162601527, 136.7506431694316, 0.0
7643, 28.80994080422986, 139.3876825113995, 0.0
7644, 27.64018637913192, 140.640923037721, 0.0
7645, 26.39387545195621, 139.3006436518496, 0.0
7646, 27.60190812809304, 139.3441630816245, 0.0
7647, 25.22070442921462, 140.5362892395692, 0.0
7648, 25.18584277581939, 139.2571242220746, 0.0
7649, 91.32166150177187, 37.475985030546, 0.0
7650, 92.56404643041054, 38.73357747213447, 0.0
7651, 91.33330578815936, 39.97805999025906, 0.0
7652, 91.32748364496562, 38.72702251040253, 0.0
7653, 91.31001721538439, 34.97391007083295, 0.0
7654, 92.55392921016922, 36.23178691316278, 0.0
7655, 91.31583935857813, 36.22494755068948, 0.0
7656, 93.78772398471273, 34.98787319652091, 0.0
7657, 95.0301089133514, 36.24546563810938, 0.0
7658, 93.79631413880789, 37.48937935475124, 0.0
7659, 93.79201906176031, 36.23862627563608, 0.0
7660, 95.0371720013004, 38.74668739559835, 0.0
7661, 93.80490429290306, 39.99088551298158, 0.0
7662, 93.80060921585547, 38.74013243386641, 0.0
7663, 40.86183705810016, 52.72300578779483, 0.0
7664, 40.13316380101583, 50.97985568521524, 0.0
7665, 41.56379087466605, 50.2265044372523, 0.0
7666, 42.29246413175039, 51.96965453983189, 0.0
7667, 41.2128139663831, 51.47475511252356, 0.0
7668, 38.81330224542548, 51.75780856819486, 0.0
7669, 37.97386347028126, 49.99005683059859, 0.0
7670, 39.29372502587162, 49.21210394761898, 0.0
7671, 39.05351363564854, 50.48495625790692, 0.0
7672, 38.34352073266754, 47.41975057500603, 0.0
7673, 39.77414780631776, 46.6663993270431, 0.0
7674, 40.72435209952184, 48.45875269965604, 0.0
7675, 39.53393641609469, 47.93925163733103, 0.0
7676, 42.26574469123193, 47.73000308670977, 0.0
7677, 43.10518346637614, 49.49775482430604, 0.0
7678, 41.91476778294899, 48.97825376198104, 0.0
7679, 14.84480078330794, 166.2935881943975, 0.0
7680, 13.62516381064189, 167.5308970381689, 0.0
7681, 12.38190757992135, 166.2700430957449, 0.0
7682, 13.61335418161464, 166.2818156450712, 0.0
7683, 14.87179292404033, 168.7897448212053, 0.0
7684, 13.64878306869638, 170.0290598243645, 0.0
7685, 12.40215395529794, 168.7702120413281, 0.0
7686, 13.63697343966913, 168.7799784312667, 0.0
7687, 11.17577121727608, 170.0115332038749, 0.0
7688, 9.932514986555542, 168.7506792614509, 0.0
7689, 11.1588977245774, 167.509358098904, 0.0
7690, 11.16733447092674, 168.7604456513895, 0.0
7691, 9.919014376534765, 166.2464979970923, 0.0
7692, 11.15046097822806, 166.2582705464186, 0.0
7693, 12.06782694583356, 76.43298739195095, 0.0
7694, 10.87711533416243, 77.68573295083635, 0.0
7695, 10.86534389536707, 76.42661289194464, 0.0
7696, 14.47279304676654, 76.44573639196355, 0.0
7697, 13.29606115510046, 77.70750397908259, 0.0
7698, 13.27030999630005, 76.43936189195725, 0.0
7699, 14.53827508437241, 78.99104259444786, 0.0
7700, 12.10534954342932, 78.960249537968, 0.0
7701, 13.32181231390086, 78.97564606620793, 0.0
7702, 10.88888677295778, 78.94485300972809, 0.0
7703, 86.77407589682107, 72.26827412858344, 0.0
7704, 87.96045542242197, 73.56150421431693, 0.0
7705, 86.77972157647294, 73.51664535695767, 0.0
7706, 87.95171162173156, 71.06385067471138, 0.0
7707, 86.76843021716921, 71.01990290020922, 0.0
7708, 89.13809114733246, 72.35708076044486, 0.0
7709, 89.13499302629393, 71.10779844921353, 0.0
7710, 89.14118926837101, 73.60636307167618, 0.0
7711, 7.307441494239386, 61.25307028698705, 0.0
7712, 6.092705081940662, 62.51536452128992, 0.0
7713, 4.889907807547097, 61.25742425710153, 0.0
7714, 6.098674650893242, 61.25524727204429, 0.0
7715, 9.724975180931676, 61.24871631687259, 0.0
7716, 8.508303503614677, 62.51592012591161, 0.0
7717, 8.516208337585532, 61.25089330192982, 0.0
7718, 9.707230247971694, 63.78367953957233, 0.0
7719, 7.293567091315953, 63.77821436021447, 0.0
7720, 8.500398669643822, 63.78094694989339, 0.0
7721, 4.879903934660214, 63.77274918085662, 0.0
7722, 6.086735512988084, 63.77548177053554, 0.0
7723, 86.79947017141723, 87.33061812072327, 0.0
7724, 87.98482617718082, 88.61259290409981, 0.0
7725, 86.80619104430237, 88.58472826952247, 0.0
7726, 87.97563486694312, 86.1051870714442, 0.0
7727, 86.79274929853209, 86.07650797192406, 0.0
7728, 89.16099087270672, 87.38716185482075, 0.0
7729, 89.15852043535416, 86.13386617096435, 0.0
7730, 89.16346131005929, 88.64045753867714, 0.0
7731, 76.38612827386237, 24.84891936973492, 0.0
7732, 77.6430534764734, 26.09958030868671, 0.0
7733, 76.42624118547914, 27.3165812325156, 0.0
7734, 75.16931598286811, 26.06592029356381, 0.0
7735, 76.40618472967076, 26.08275030112526, 0.0
7736, 78.86310650403529, 24.87902858522398, 0.0
7737, 80.1167909700787, 26.13324032380962, 0.0
7738, 78.89673794251681, 27.35379204727235, 0.0
7739, 78.87992222327604, 26.11641031624817, 0.0
7740, 80.14718167199257, 28.61155458549184, 0.0
7741, 77.67992565152255, 28.57079297110124, 0.0
7742, 78.91355366175756, 28.59117377829654, 0.0
7743, 75.21266963105253, 28.53003135671064, 0.0
7744, 76.44629764128754, 28.55041216390594, 0.0
7745, 65.12091896503443, 181.4326288260326, 0.0
7746, 63.85367442720014, 182.6742495408554, 0.0
7747, 62.61575548842353, 181.4611334173857, 0.0
7748, 63.86833722672898, 181.4468811217091, 0.0
7749, 65.0899529905808, 183.8909980675286, 0.0
7750, 63.82434882814245, 185.1289863791479, 0.0
7751, 62.5880702647618, 183.9122378524748, 0.0
7752, 63.8390116276713, 183.9016179600017, 0.0
7753, 61.32410647771943, 185.1465937608907, 0.0
7754, 60.08618753894282, 183.933477637421, 0.0
7755, 61.35015132598519, 182.699121729005, 0.0
7756, 61.33712890185231, 183.9228577449479, 0.0
7757, 60.11059201181263, 181.4896380087387, 0.0
7758, 61.36317375011808, 181.4753857130622, 0.0
7759, 46.27958173556073, 192.5793352867282, 0.0
7760, 47.52347088254144, 193.8118065063317, 0.0
7761, 46.26837183349416, 195.0449316614313, 0.0
7762, 46.27397678452744, 193.8121334740798, 0.0
7763, 46.29079163762728, 190.113738912025, 0.0
7764, 47.5349987243797, 191.3462319851915, 0.0
7765, 46.285186686594, 191.3465370993766, 0.0
7766, 48.7907336529704, 190.1131505372179, 0.0
7767, 50.03462279995111, 191.3456217568215, 0.0
7768, 48.77888787136042, 192.5787032047951, 0.0
7769, 48.78481076216541, 191.3459268710065, 0.0
7770, 50.02245907856943, 193.8111525708358, 0.0
7771, 48.76704208975044, 195.0442558723724, 0.0
7772, 48.77296498055544, 193.8114795385838, 0.0
7773, 27.9509132949722, 122.0195245729428, 0.0
7774, 26.86335314715696, 123.126025958505, 0.0
7775, 25.76153473312075, 121.9305094107493, 0.0
7776, 26.85622401404648, 121.975016991846, 0.0
7777, 27.96576877549128, 124.294338620421, 0.0
7778, 25.77519578504363, 124.2597312299071, 0.0
7779, 26.87048228026745, 124.277034925164, 0.0
7780, 23.58462279459598, 124.2251238393931, 0.0
7781, 24.67337737100742, 123.0642146821513, 0.0
7782, 24.67990928981981, 124.2424275346501, 0.0
7783, 23.5721561712693, 121.8414942485557, 0.0
7784, 24.66684545219502, 121.8860018296525, 0.0
7785, 15.86679115841273, 150.1863389057773, 0.0
7786, 17.08014723759131, 151.4580316924223, 0.0
7787, 15.89568003954537, 152.6629661989695, 0.0
7788, 14.68232396036679, 151.3912734123246, 0.0
7789, 15.88123559897905, 151.4246525523734, 0.0
7790, 18.26077705992271, 150.2541391498954, 0.0
7791, 19.47797051481584, 151.52478997252, 0.0
7792, 18.29734069248445, 152.7286825150469, 0.0
7793, 18.27905887620357, 151.4914108324712, 0.0
7794, 19.51837152309213, 153.9982913736512, 0.0
7795, 18.33390432504618, 155.2032258801984, 0.0
7796, 17.1128734944385, 153.9336170215941, 0.0
7797, 18.31562250876532, 153.9659541976226, 0.0
7798, 15.92456892067801, 155.1395934921617, 0.0
7799, 14.70737546578487, 153.8689426695371, 0.0
7800, 15.91012448011169, 153.9012798455656, 0.0
7801, 46.70610185836314, 36.62104342706772, 0.0
7802, 48.18043770306318, 37.7930467525115, 0.0
7803, 46.92737174130188, 37.85673173929167, 0.0
7804, 46.26356209248569, 34.14966680261982, 0.0
7805, 47.77000159801779, 35.3436800333955, 0.0
7806, 46.48483197542441, 35.38535511484377, 0.0
7807, 48.86600499850451, 34.08832654505518, 0.0
7808, 50.34034084320455, 35.26032987049896, 0.0
7809, 49.24433744271784, 36.51568335883928, 0.0
7810, 49.05517122061117, 35.30200495194723, 0.0
7811, 50.68656962658581, 37.66567677895115, 0.0
7812, 49.4335036648245, 37.72936176573133, 0.0
7813, 81.45504298843797, 167.6093423224752, 0.0
7814, 82.66835175751027, 168.8398667589926, 0.0
7815, 81.42120860144506, 170.0981572777704, 0.0
7816, 81.43812579494151, 168.8537498001228, 0.0
7817, 81.48887737543087, 165.1205273671799, 0.0
7818, 82.69785217026327, 166.3490493832314, 0.0
7819, 81.47196018193442, 166.3649348448276, 0.0
7820, 83.93632737784866, 165.0867540235216, 0.0
7821, 85.14963614692095, 166.317278460039, 0.0
7822, 83.91116093933557, 167.5795738197488, 0.0
7823, 83.92374415859211, 166.3331639216352, 0.0
7824, 85.1288036826478, 168.8121006767321, 0.0
7825, 83.88599450082249, 170.072393615976, 0.0
7826, 83.89857772007903, 168.8259837178624, 0.0
7827, 77.52742942797815, 71.95396160246241, 0.0
7828, 78.66693925469244, 73.2742685501174, 0.0
7829, 77.52833386693558, 73.25904849913167, 0.0
7830, 78.66169939075118, 70.6908695284256, 0.0
7831, 77.52652498902071, 70.64887470579316, 0.0
7832, 79.80120921746547, 72.01117647608058, 0.0
7833, 79.79687379248163, 70.73286435105801, 0.0
7834, 79.80554464244932, 73.28948860110314, 0.0
7835, 60.62404920942011, 48.59188229418557, 0.0
7836, 59.33561181569519, 47.33495173623769, 0.0
7837, 60.36247248310448, 46.21061626478441, 0.0
7838, 60.49326084626229, 47.40124927948499, 0.0
7839, 58.33128332226714, 48.44763684909351, 0.0
7840, 57.02031375456099, 47.20235664974308, 0.0
7841, 58.02464224798903, 46.08967153688727, 0.0
7842, 58.17796278512809, 47.26865419299038, 0.0
7843, 56.69114050630162, 44.85604169613431, 0.0
7844, 57.71800117371092, 43.73170622468103, 0.0
7845, 59.05150291539832, 44.96533606543399, 0.0
7846, 57.87132171084997, 44.91068888078415, 0.0
7847, 60.10089575678884, 43.82935023538326, 0.0
7848, 60.23168411994666, 45.01998325008384, 0.0
7849, 21.22434852917377, 185.058766742289, 0.0
7850, 22.47905050354993, 186.3099704804109, 0.0
7851, 21.23513728026658, 187.5448467706865, 0.0
7852, 19.98043530589042, 186.2936430325646, 0.0
7853, 21.22974290472018, 186.3018067564878, 0.0
7854, 23.72211441783692, 185.0771175013544, 0.0
7855, 24.97766570120944, 186.3262979282572, 0.0
7856, 23.73460178692245, 187.5591509073138, 0.0
7857, 23.72835810237969, 186.3181342043341, 0.0
7858, 24.99100237929133, 188.8063080229976, 0.0
7859, 23.74708915600798, 190.0411843132732, 0.0
7860, 22.49068856363911, 188.7940271975894, 0.0
7861, 23.74084547146522, 188.8001676102935, 0.0
7862, 21.2459260313594, 190.0309267990841, 0.0
7863, 19.99037474798688, 188.7817463721813, 0.0
7864, 21.24053165581299, 188.7878867848853, 0.0
7865, 38.67638795926388, 12.36843515119267, 0.0
7866, 37.44061324830096, 11.14638798524699, 0.0
7867, 38.70785368109134, 9.911732613174586, 0.0
7868, 38.69212082017761, 11.14008388218363, 0.0
7869, 38.6449222374364, 14.82513768921075, 0.0
7870, 37.40920030539726, 13.60584572435631, 0.0
7871, 38.66065509835013, 13.5967864202017, 0.0
7872, 36.14206543045444, 14.8460114986112, 0.0
7873, 34.90629071949152, 13.62396433266552, 0.0
7874, 36.17342559443435, 12.38379855841063, 0.0
7875, 36.15774551244439, 13.61490502851091, 0.0
7876, 34.93759810454766, 11.15899619137371, 0.0
7877, 36.20478575841427, 9.921585618210068, 0.0
7878, 36.1891056764243, 11.15269208831035, 0.0
7879, 67.08587271823545, 89.88454104326449, 0.0
7880, 66.08953799477587, 88.67053823818506, 0.0
7881, 67.1761300383427, 88.79849236694366, 0.0
7882, 66.90535807802098, 92.05663839590612, 0.0
7883, 65.76014089118009, 91.05797000256183, 0.0
7884, 66.99561539812821, 90.9705897195853, 0.0
7885, 64.28552660074344, 92.4467333735943, 0.0
7886, 63.28919187728386, 91.23273056851485, 0.0
7887, 64.7638061677205, 89.84396719748239, 0.0
7888, 64.52466638423196, 91.14535028553834, 0.0
7889, 63.91635390764224, 88.41462998066783, 0.0
7890, 65.00294595120906, 88.54258410942643, 0.0
7891, 8.663024277066214, 162.4942610843342, 0.0
7892, 7.422817946910494, 161.2429040025745, 0.0
7893, 8.650262201361944, 159.9960050023861, 0.0
7894, 8.656643239214079, 161.2451330433601, 0.0
7895, 8.675786352770485, 164.9925171662823, 0.0
7896, 7.433811738314562, 163.7413859792925, 0.0
7897, 8.66940531491835, 163.7433891253082, 0.0
7898, 6.202830915262705, 164.9887367690209, 0.0
7899, 4.962624585106986, 163.7373796872612, 0.0
7900, 6.193605408158842, 162.4900288975329, 0.0
7901, 6.198218161710773, 163.7393828332769, 0.0
7902, 4.955167362303326, 161.2384459210032, 0.0
7903, 6.184379901054978, 159.9913210260449, 0.0
7904, 6.18899265460691, 161.2406749617889, 0.0
7905, 68.52543838901937, 45.4710829332116, 0.0
7906, 67.4184500637587, 46.62443795315102, 0.0
7907, 67.33788701993208, 45.40497945699596, 0.0
7908, 70.90054112719396, 45.60328988564291, 0.0
7909, 69.7798986268398, 46.76445135147081, 0.0
7910, 69.71298975810667, 45.53718640942726, 0.0
7911, 71.02070468956674, 48.06562621561849, 0.0
7912, 69.91371636430605, 49.21898123555791, 0.0
7913, 68.67291030157912, 47.91780637141022, 0.0
7914, 69.84680749557293, 47.99171629351436, 0.0
7915, 67.57957615141191, 49.06335494546114, 0.0
7916, 67.49901310758531, 47.84389644930609, 0.0
7917, 23.01452360090618, 150.4144840170195, 0.0
7918, 21.80733903750958, 149.1330049243689, 0.0
7919, 22.97003242248293, 147.9354366214542, 0.0
7920, 24.17721698587953, 149.2169157141047, 0.0
7921, 22.99227801169456, 149.1749603192368, 0.0
7922, 20.64335454075385, 150.3301875203095, 0.0
7923, 19.43746108913962, 149.0490941346332, 0.0
7924, 20.60144558589535, 147.8519115386927, 0.0
7925, 20.6224000633246, 149.0910495295011, 0.0
7926, 19.39684324606348, 146.5712038599906, 0.0
7927, 21.7641389708687, 146.6543432357779, 0.0
7928, 20.58049110846609, 146.6127735478842, 0.0
7929, 24.13143469567391, 146.7374826115651, 0.0
7930, 22.9477868332713, 146.6959129236715, 0.0
7931, 13.60349355139928, 32.42323031570844, 0.0
7932, 12.38288800590272, 31.1888111914719, 0.0
7933, 13.62542245653901, 29.92911560815231, 0.0
7934, 13.61445800396914, 31.17617296193037, 0.0
7935, 13.58156464625956, 34.91734502326456, 0.0
7936, 12.36437203794001, 33.68451255065934, 0.0
7937, 13.59252909882942, 33.6702876694865, 0.0
7938, 11.12866346165775, 34.94738143724156, 0.0
7939, 9.908057916161194, 33.71296231300503, 0.0
7940, 11.14376649244345, 32.45009342642281, 0.0
7941, 11.1362149770506, 33.69873743183219, 0.0
7942, 9.919748009769883, 31.21408765055497, 0.0
7943, 11.15886952322915, 29.95280541560405, 0.0
7944, 11.1513180078363, 31.20144942101343, 0.0
7945, 84.3809477246048, 132.7519927875128, 0.0
7946, 83.24166315405404, 131.5310227191911, 0.0
7947, 84.43343498370223, 130.2850079368615, 0.0
7948, 84.40719135415351, 131.5185003621872, 0.0
7949, 83.18119951672008, 133.9993802565419, 0.0
7950, 84.35470409505608, 133.9854852128385, 0.0
7951, 82.04191494616933, 132.7784101882202, 0.0
7952, 82.00769493838409, 134.0132753002453, 0.0
7953, 82.1103549617398, 130.30867996417, 0.0
7954, 82.07613495395456, 131.5435450761951, 0.0
7955, 72.25677039590863, 49.35866141507869, 0.0
7956, 73.48780736749697, 50.64752516852965, 0.0
7957, 72.37672060467585, 51.80749024768173, 0.0
7958, 71.14568363308751, 50.51862649423077, 0.0
7959, 72.31674550029224, 50.58307583138021, 0.0
7960, 74.60873824621967, 49.48239548402351, 0.0
7961, 75.82993110190641, 50.77642384282853, 0.0
7962, 74.70900022318371, 51.94155352733468, 0.0
7963, 74.6588692347017, 50.71197450567909, 0.0
7964, 75.92034896296883, 53.24074649149376, 0.0
7965, 74.80926220014771, 54.40071157064584, 0.0
7966, 73.59791346036258, 53.10151860648676, 0.0
7967, 74.7591312116657, 53.17113254899026, 0.0
7968, 72.49667081344305, 54.25631908028478, 0.0
7969, 71.27547795775632, 52.96229072147976, 0.0
7970, 72.43669570905945, 53.03190466398326, 0.0
7971, 4.924522559034134, 48.7169590178826, 0.0
7972, 6.15450335792147, 47.45870613695635, 0.0
7973, 7.372646349852856, 48.69574668119171, 0.0
7974, 6.142665550965519, 49.95399956211796, 0.0
7975, 6.148584454443494, 48.70635284953716, 0.0
7976, 4.934125754889209, 46.22075097037245, 0.0
7977, 7.386718767909681, 46.20136787837865, 0.0
7978, 6.160422261399445, 46.21105942437555, 0.0
7979, 9.839311780930151, 46.18198478638485, 0.0
7980, 8.604861759841068, 47.438408422614, 0.0
7981, 8.613015274419919, 46.19167633238175, 0.0
7982, 9.820770140671577, 48.67453434450083, 0.0
7983, 8.588554730683367, 49.93187260307853, 0.0
7984, 8.596708245262217, 48.68514051284626, 0.0
7985, 89.06320384178983, 137.615421405021, 0.0
7986, 87.87888812877017, 136.399873536191, 0.0
7987, 89.07251999329675, 136.3830948142877, 0.0
7988, 89.04457153877593, 140.0800745864875, 0.0
7989, 87.85691403793118, 138.8623321430929, 0.0
7990, 89.05388769028286, 138.8477479957542, 0.0
7991, 86.64728244624743, 140.1070483066003, 0.0
7992, 86.67259832491155, 137.646784274263, 0.0
7993, 86.65994038557949, 138.8769162904317, 0.0
7994, 86.6852562642436, 136.4166522580943, 0.0
7995, 31.33867123633603, 152.0632069764498, 0.0
7996, 30.19316766593231, 153.2115314899636, 0.0
7997, 30.1530484697876, 151.9883044135961, 0.0
7998, 33.70991676943288, 152.2130121021573, 0.0
7999, 32.56903163593022, 153.3535803537279, 0.0
8000, 32.52429400288445, 152.1381095393035, 0.0
8001, 33.80401047242546, 154.6361974690627, 0.0
8002, 32.65850690202174, 155.7845219825765, 0.0
8003, 31.4235280655265, 154.5019048672417, 0.0
8004, 32.61376926897599, 154.5690511681522, 0.0
8005, 30.27340605822173, 155.6579856426987, 0.0
8006, 30.23328686207702, 154.4347585663312, 0.0
8007, 31.29886689242865, 144.7355436609313, 0.0
8008, 32.55581464278657, 143.6192248625274, 0.0
8009, 32.51703348832864, 144.857343830458, 0.0
8010, 28.86253370062867, 144.491943321878, 0.0
8011, 30.09082593767284, 143.3568808609653, 0.0
8012, 30.08070029652866, 144.6137434914047, 0.0
8013, 28.85412946960327, 141.9594743984906, 0.0
8014, 30.11107721996119, 140.8431556000866, 0.0
8015, 31.34777368803075, 142.2405620625614, 0.0
8016, 30.10095157881701, 142.100018230526, 0.0
8017, 32.63337695170241, 141.1429869266661, 0.0
8018, 32.59459579724449, 142.3811058945967, 0.0
8019, 66.81167896462381, 163.0006490342327, 0.0
8020, 67.99978867685732, 164.1931289841619, 0.0
8021, 66.69717970892785, 165.4609807488623, 0.0
8022, 66.75442933677584, 164.2308148915475, 0.0
8023, 66.92617822031974, 160.5403173196031, 0.0
8024, 68.10690979748601, 161.7292728175487, 0.0
8025, 66.86892859247178, 161.7704831769179, 0.0
8026, 69.39476249528096, 160.454372148881, 0.0
8027, 70.58287220751448, 161.6468520988102, 0.0
8028, 69.29501950971954, 162.9217527674779, 0.0
8029, 69.34489100250025, 161.6880624581794, 0.0
8030, 70.49050735702032, 164.1177571693907, 0.0
8031, 69.19527652415812, 165.3891333860747, 0.0
8032, 69.24514801693883, 164.1554430767763, 0.0
8033, 85.10811872274712, 171.3058648200973, 0.0
8034, 83.86294124361646, 172.5639056242439, 0.0
8035, 82.64081702169183, 171.3304344201226, 0.0
8036, 83.87446787221948, 171.3181496201099, 0.0
8037, 85.08758126721898, 173.7985708901346, 0.0
8038, 83.83988798641045, 175.055417632512, 0.0
8039, 82.61524796280794, 173.8207523666213, 0.0
8040, 83.85141461501345, 173.809661628378, 0.0
8041, 81.36503888032155, 175.0764050472295, 0.0
8042, 81.39312374088331, 172.5872811624999, 0.0
8043, 81.37908131060243, 173.8318431048647, 0.0
8044, 81.40716617116419, 171.3427192201352, 0.0
8045, 12.0872380863458, 63.79905618714071, 0.0
8046, 13.29485636603672, 62.53310239824081, 0.0
8047, 13.27724200553284, 63.8067445109249, 0.0
8048, 10.90902059831336, 62.52183275156191, 0.0
8049, 10.89723416715874, 63.79136786335653, 0.0
8050, 12.11663887800429, 61.25587896266201, 0.0
8051, 10.92080702946798, 61.25229763976729, 0.0
8052, 13.31247072654059, 61.25946028555671, 0.0
8053, 95.07173699979978, 151.2573367990875, 0.0
8054, 93.84070951867385, 152.5119569692098, 0.0
8055, 92.62232113096468, 151.2646710276334, 0.0
8056, 93.84702906538223, 151.2610039133605, 0.0
8057, 95.06173232614049, 153.7587059704253, 0.0
8058, 92.60704761779044, 153.7671140796929, 0.0
8059, 93.83438997196546, 153.7629100250591, 0.0
8060, 91.38865923008127, 152.5198281381166, 0.0
8061, 91.37970526361542, 153.7713181343267, 0.0
8062, 91.39761319654711, 151.2683381419064, 0.0
8063, 85.17377978039616, 163.8222204972627, 0.0
8064, 86.41561917416205, 162.5640099422284, 0.0
8065, 87.63366838256235, 163.8020296710893, 0.0
8066, 86.39182898879645, 165.0602402261237, 0.0
8067, 86.40372408147925, 163.812125084176, 0.0
8068, 85.20123458307336, 161.3269267884032, 0.0
8069, 86.43940935952764, 160.067779658333, 0.0
8070, 87.65379395061633, 161.3048628121581, 0.0
8071, 86.42751426684485, 161.3158948002807, 0.0
8072, 88.88830410975902, 160.0447791070521, 0.0
8073, 90.10635331815934, 161.2827988359131, 0.0
8074, 88.87184315901663, 162.5428825410191, 0.0
8075, 88.88007363438783, 161.2938308240356, 0.0
8076, 90.09355698472856, 163.7818388449159, 0.0
8077, 88.85538220827428, 165.0409859749861, 0.0
8078, 88.86361268364544, 163.7919342580026, 0.0
8079, 74.36132949051887, 157.8263501344336, 0.0
8080, 73.19527881865102, 156.6287697121392, 0.0
8081, 74.44040021913806, 155.349301973323, 0.0
8082, 74.40086485482847, 156.5878260538783, 0.0
8083, 74.2822587618997, 160.3033982955442, 0.0
8084, 73.10810897434166, 159.1025223828483, 0.0
8085, 74.32179412620928, 159.0648742149889, 0.0
8086, 71.84678934247427, 160.3753991408614, 0.0
8087, 70.68073867060642, 159.177818718567, 0.0
8088, 71.94205830247381, 157.9049419605539, 0.0
8089, 71.89442382247404, 159.1401705507076, 0.0
8090, 70.78410674629612, 156.7106570286609, 0.0
8091, 72.03732726247333, 155.4344847802463, 0.0
8092, 71.98969278247357, 156.6697133704001, 0.0
8093, 76.32730662274048, 19.90440658611777, 0.0
8094, 77.58424198554236, 21.15135920207953, 0.0
8095, 76.35671744830142, 22.37666297792634, 0.0
8096, 75.09978208549953, 21.12971036196458, 0.0
8097, 76.34201203552095, 21.14053478202205, 0.0
8098, 78.81426041273994, 19.92323530110801, 0.0
8099, 80.0687018855852, 21.17300804219447, 0.0
8100, 78.8386834583876, 22.40113194316599, 0.0
8101, 78.82647193556377, 21.162183622137, 0.0
8102, 80.09063104127623, 23.65372480937716, 0.0
8103, 77.61115892114667, 23.62643571901281, 0.0
8104, 78.85089498121145, 23.64008026419499, 0.0
8105, 75.13168680101711, 23.59914662864846, 0.0
8106, 76.3714228610819, 23.61279117383063, 0.0
8107, 86.468772037626, 44.9162197712952, 0.0
8108, 87.7025721239122, 46.18597337210137, 0.0
8109, 86.49965662389258, 47.41439630585807, 0.0
8110, 86.48421433075929, 46.16530803857663, 0.0
8111, 88.90813970856547, 44.95811828633461, 0.0
8112, 90.13928771021804, 46.22730403915082, 0.0
8113, 88.93372012556478, 47.45515912491757, 0.0
8114, 88.92092991706512, 46.20663870562609, 0.0
8115, 90.16221604258371, 48.72377702974383, 0.0
8116, 87.73080462554515, 48.68358205867428, 0.0
8117, 88.94651033406443, 48.70367954420905, 0.0
8118, 86.51509891702587, 48.6634845731395, 0.0
8119, 13.41540231099182, 52.39098125848308, 0.0
8120, 12.2202940041982, 51.14833075658163, 0.0
8121, 13.44483931892634, 49.87977807013965, 0.0
8122, 13.43012081495907, 51.13537966431137, 0.0
8123, 12.19343004033128, 53.65808209385281, 0.0
8124, 13.40068380702455, 53.6465828526548, 0.0
8125, 9.778922506944738, 53.68108057624885, 0.0
8126, 10.99832173353767, 52.41543159195136, 0.0
8127, 10.98617627363801, 53.66958133505082, 0.0
8128, 9.800640382676441, 51.17423294112216, 0.0
8129, 11.02261265333697, 49.90713210575242, 0.0
8130, 11.01046719343732, 51.16128184885189, 0.0
8131, 96.36947465323105, 99.98834122277796, 0.0
8132, 97.57915525800628, 101.2443683601269, 0.0
8133, 96.36799112078779, 102.4947638579581, 0.0
8134, 96.36873288700941, 101.241552540368, 0.0
8135, 98.78982488441035, 99.9961137406909, 0.0
8136, 98.78933037359593, 102.4982546190806, 0.0
8137, 98.78957762900315, 101.247184179886, 0.0
8138, 98.78883586278151, 105.0003954974724, 0.0
8139, 97.57816623637744, 103.7486501169125, 0.0
8140, 98.78908311818871, 103.7493250582764, 0.0
8141, 96.36650758834453, 105.0011864931389, 0.0
8142, 96.36724935456616, 103.7479751755485, 0.0
8143, 96.35724893396423, 89.99369437481408, 0.0
8144, 97.57234070187685, 91.24453921414108, 0.0
8145, 96.35977317166633, 92.4899232679473, 0.0
8146, 96.35851105281529, 91.2418088213807, 0.0
8147, 98.78574964465474, 89.99789812471386, 0.0
8148, 98.78659105722211, 92.4966410890891, 0.0
8149, 98.78617035093843, 91.24726960690145, 0.0
8150, 98.78743246978948, 94.99538405346382, 0.0
8151, 97.57402352701158, 93.74202514289514, 0.0
8152, 98.7870117635058, 93.74601257127662, 0.0
8153, 96.36229740936841, 94.98615216108035, 0.0
8154, 96.36103529051736, 93.73803771451382, 0.0
8155, 96.36175747277001, 84.98900560184774, 0.0
8156, 97.57375355871238, 86.24345186328273, 0.0
8157, 96.35950320336713, 87.4913499883308, 0.0
8158, 96.36063033806856, 86.24017779508927, 0.0
8159, 98.78725249092334, 84.9963352003972, 0.0
8160, 98.78650106778903, 87.49711666255521, 0.0
8161, 98.78687677935619, 86.24672593147626, 0.0
8162, 97.57225071244378, 88.74501478760348, 0.0
8163, 98.78612535622189, 88.74750739363452, 0.0
8164, 96.35837606866568, 88.74252218157243, 0.0
8165, 63.77028641447242, 9.92259954402858, 0.0
8166, 62.51469913878046, 8.678875931950541, 0.0
8167, 63.76255848178311, 7.445358046495933, 0.0
8168, 65.01814575747508, 8.689081658573972, 0.0
8169, 63.76642244812777, 8.683978795262256, 0.0
8170, 61.26636743619385, 9.910392889569982, 0.0
8171, 60.01125252008584, 8.668670205327109, 0.0
8172, 61.25958422267244, 7.437153247707668, 0.0
8173, 61.26297582943315, 8.673773068638825, 0.0
8174, 60.00494166614839, 6.197431491299961, 0.0
8175, 61.25280100915105, 4.963913605845354, 0.0
8176, 62.5074435656751, 6.20363536225306, 0.0
8177, 61.25619261591175, 6.20053342677651, 0.0
8178, 63.75483054909382, 4.968116548963287, 0.0
8179, 65.00994546520182, 6.20983923320616, 0.0
8180, 63.75869451543846, 6.206737297729609, 0.0
8181, 15.56542553865568, 67.65841747591567, 0.0
8182, 16.67129517967725, 68.94918880135438, 0.0
8183, 15.52830454608451, 68.9185605798607, 0.0
8184, 16.77884335859551, 66.44048565926035, 0.0
8185, 15.60254653122685, 66.39827437197066, 0.0
8186, 17.88471299961708, 67.73125698469907, 0.0
8187, 17.95514018596417, 66.48269694655004, 0.0
8188, 17.81428581326999, 68.97981702284808, 0.0
8189, 10.99478901146279, 145.1008680333551, 0.0
8190, 12.21115394265778, 146.3742462336679, 0.0
8191, 11.01363568909131, 147.5913666139747, 0.0
8192, 11.00421235027705, 146.3461173236649, 0.0
8193, 13.40500751538075, 145.1601954402244, 0.0
8194, 14.62503712741924, 146.4305040536738, 0.0
8195, 13.43118355469626, 147.6445548471173, 0.0
8196, 13.41809553503851, 146.4023751436708, 0.0
8197, 14.65487784757824, 148.9117938737035, 0.0
8198, 13.45735959401177, 150.1289142540103, 0.0
8199, 12.2336653011298, 148.8616752274241, 0.0
8200, 13.44427157435402, 148.8867345505638, 0.0
8201, 11.03248236671984, 150.0818651945942, 0.0
8202, 11.02305902790557, 148.8366159042845, 0.0
8203, 97.57606114688937, 96.24113295088735, 0.0
8204, 96.36588603129974, 97.48724669192883, 0.0
8205, 96.36409172033409, 96.23669942650459, 0.0
8206, 98.78862867709991, 97.49574889707638, 0.0
8207, 98.78803057344467, 96.24556647527011, 0.0
8208, 97.57845356151026, 98.74186263811852, 0.0
8209, 98.78922678075514, 98.74593131888373, 0.0
8210, 96.3676803422654, 98.73779395735339, 0.0
8211, 3.65354077398958, 115.0343686715038, 0.0
8212, 2.43762739274672, 113.7762168487372, 0.0
8213, 3.659341404250581, 112.5442818741913, 0.0
8214, 3.656441089120081, 113.7893252728476, 0.0
8215, 1.217846924663194, 115.0114562241788, 0.0
8216, 1.219780468083527, 112.514760625075, 0.0
8217, 1.21881369637336, 113.763108424627, 0.0
8218, 1.22171401150386, 110.0180650259704, 0.0
8219, 2.441494479587388, 111.2828256505288, 0.0
8220, 1.220747239793694, 111.2664128255227, 0.0
8221, 3.665142034511581, 110.0541950768786, 0.0
8222, 3.662241719381081, 111.299238475535, 0.0
8223, 2.44645778521985, 108.7887040451349, 0.0
8224, 3.674231321147968, 107.5619170580096, 0.0
8225, 3.669686677829775, 108.8080560674441, 0.0
8226, 1.224743773715989, 107.5206390196811, 0.0
8227, 1.223228892609925, 108.7693520228256, 0.0
8228, 1.227773535928118, 105.0232130133909, 0.0
8229, 2.452517309644108, 106.2938520325555, 0.0
8230, 1.226258654822054, 106.271926016536, 0.0
8231, 3.683320607784355, 105.0696390391403, 0.0
8232, 3.678775964466162, 106.315778048575, 0.0
8233, 3.689895104873057, 102.563791297766, 0.0
8234, 2.462121568944938, 101.2905782848914, 0.0
8235, 3.696469601961758, 100.0579435563917, 0.0
8236, 3.693182353417408, 101.3108674270789, 0.0
8237, 2.457738570885804, 103.7944767791409, 0.0
8238, 3.686607856328706, 103.8167151684532, 0.0
8239, 1.229965034957686, 102.5212637662662, 0.0
8240, 1.228869285442902, 103.7722383898287, 0.0
8241, 1.232156533987253, 100.0193145191414, 0.0
8242, 1.231060784472469, 101.2702891427038, 0.0
8243, 75.85572401291893, 141.5908802507432, 0.0
8244, 74.64673810422595, 142.9141992269982, 0.0
8245, 73.41274701497963, 141.7193049607195, 0.0
8246, 74.63423551394928, 141.6550926057313, 0.0
8247, 75.8603200582847, 144.1106938273243, 0.0
8248, 74.67174328477928, 145.4324124695318, 0.0
8249, 73.45816133072053, 144.2359178692057, 0.0
8250, 74.65924069450261, 144.173305848265, 0.0
8251, 72.28999369240266, 145.5560361773657, 0.0
8252, 72.22417024147421, 143.0410236029271, 0.0
8253, 72.25708196693843, 144.2985298901464, 0.0
8254, 72.19125851600998, 141.7835173157077, 0.0
8255, 3.686933714013954, 95.03522352810079, 0.0
8256, 2.454404969446689, 93.77193668739791, 0.0
8257, 3.676281194326114, 92.53058653357641, 0.0
8258, 3.681607454170034, 93.78290503083859, 0.0
8259, 1.228977904671318, 95.01174117637777, 0.0
8260, 1.225427064775371, 92.51019551153666, 0.0
8261, 1.227202484723345, 93.7609683439571, 0.0
8262, 1.221876224879425, 90.00864984669477, 0.0
8263, 2.447303289654796, 91.26884535771491, 0.0
8264, 1.223651644827398, 91.25942267911557, 0.0
8265, 3.665628674638274, 90.02594953905178, 0.0
8266, 3.670954934482194, 91.27826803631409, 0.0
8267, 2.462723753316538, 98.78484236638461, 0.0
8268, 3.691701657987855, 97.54658354224611, 0.0
8269, 3.694085629974806, 98.80226354931892, 0.0
8270, 1.230567219329285, 97.51552784775913, 0.0
8271, 1.231361876658269, 98.76742118345024, 0.0
8272, 2.459545124000603, 96.27726902362096, 0.0
8273, 1.229772562000301, 96.2636345120685, 0.0
8274, 3.689317686000904, 96.29090353517346, 0.0
8275, 77.06214789510376, 140.3017669120044, 0.0
8276, 78.26375050026314, 141.5246615347835, 0.0
8277, 77.05732661807829, 142.8137748735223, 0.0
8278, 77.05973725659103, 141.5577708927634, 0.0
8279, 79.47959170483922, 140.2433538111081, 0.0
8280, 80.67177698760737, 141.4584428188239, 0.0
8281, 79.4559357830313, 142.7397505424993, 0.0
8282, 79.46776374393525, 141.4915521768037, 0.0
8283, 80.63870374340821, 143.9470339351519, 0.0
8284, 78.24951190084644, 144.0288638812381, 0.0
8285, 79.44410782212734, 143.987948908195, 0.0
8286, 77.05491597956556, 144.0697788542811, 0.0
8287, 97.57804019080535, 106.2531979745099, 0.0
8288, 96.36761298407154, 107.5084074307534, 0.0
8289, 96.36706028620803, 106.2547969619461, 0.0
8290, 98.78920432802386, 107.5028024766748, 0.0
8291, 98.78902009540266, 106.2515989870735, 0.0
8292, 98.78957279326619, 110.0052094558766, 0.0
8293, 97.57877712129005, 108.7580119329181, 0.0
8294, 98.78938856064502, 108.7540059662759, 0.0
8295, 96.36871837979857, 110.0156283683677, 0.0
8296, 96.36816568193505, 108.7620178995605, 0.0
8297, 96.36854238717578, 112.5246796145183, 0.0
8298, 97.57896959390959, 113.7694701582707, 0.0
8299, 96.36836639455302, 115.0337308606688, 0.0
8300, 96.3684543908644, 113.7792052375935, 0.0
8301, 97.57908692232479, 111.2634359941717, 0.0
8302, 96.36863038348717, 111.270153991443, 0.0
8303, 98.7895141290586, 112.5082265379244, 0.0
8304, 98.7895434611624, 111.2567179969004, 0.0
8305, 98.789455464851, 115.0112436199715, 0.0
8306, 98.78948479695481, 113.7597350789481, 0.0
8307, 32.51376010369431, 191.3187100452022, 0.0
8308, 31.26118869508508, 192.5523603799705, 0.0
8309, 30.00897241625779, 191.3079547568309, 0.0
8310, 31.26136625997605, 191.3133324010165, 0.0
8311, 35.01854779113083, 191.3294653335735, 0.0
8312, 33.76543840260511, 192.5610043002297, 0.0
8313, 33.76615394741257, 191.3240876893878, 0.0
8314, 35.01657872159944, 193.8011871871452, 0.0
8315, 33.76400731299022, 195.0348375219135, 0.0
8316, 32.51286699399589, 193.794654634998, 0.0
8317, 33.76472285779766, 193.7979209110716, 0.0
8318, 31.26083356530314, 195.0304163378783, 0.0
8319, 30.00915526639234, 193.7881220828508, 0.0
8320, 31.26101113019411, 193.7913883589244, 0.0
8321, 81.60715946203595, 157.6405486267415, 0.0
8322, 82.79960642587803, 158.8679844606848, 0.0
8323, 81.56319721578981, 160.136035254058, 0.0
8324, 81.5851783389129, 158.8882919403998, 0.0
8325, 81.65112170828209, 155.1450619994251, 0.0
8326, 82.83791500030634, 156.3697197539948, 0.0
8327, 81.62914058515902, 156.3928053130833, 0.0
8328, 84.06301686675889, 155.0961128018744, 0.0
8329, 85.25546383060095, 156.3235486358177, 0.0
8330, 84.0303619641484, 157.597155587938, 0.0
8331, 84.04668941545364, 156.3466341949062, 0.0
8332, 85.2284625998083, 158.8273695012549, 0.0
8333, 83.99770706153791, 160.0981983740016, 0.0
8334, 84.01403451284315, 158.8476769809698, 0.0
8335, 2.44130944577235, 88.77030641481134, 0.0
8336, 3.658299662678776, 87.53496970486617, 0.0
8337, 3.661964168658525, 88.78045962195897, 0.0
8338, 1.219433220892925, 87.51165656863263, 0.0
8339, 1.220654722886175, 88.76015320766382, 0.0
8340, 1.216990216906426, 85.0146632905711, 0.0
8341, 2.436423437799351, 86.27631985868767, 0.0
8342, 1.218211718899675, 86.26315992960126, 0.0
8343, 3.650970650719277, 85.04398987068078, 0.0
8344, 3.654635156699027, 86.28947978777347, 0.0
8345, 60.64974416102129, 61.6824973436542, 0.0
8346, 61.6809973318547, 60.60743393211241, 0.0
8347, 61.7626862736186, 61.858711229623, 0.0
8348, 58.42385993582667, 61.33006957171659, 0.0
8349, 59.46092656365119, 60.28583845328433, 0.0
8350, 59.53680204842398, 61.5062834576854, 0.0
8351, 58.27792242327219, 58.92001185602398, 0.0
8352, 59.3091755941056, 57.84494844448218, 0.0
8353, 60.49217973448459, 59.21077504174254, 0.0
8354, 59.38505107887839, 59.06539344888326, 0.0
8355, 61.5176194483269, 58.10487933709123, 0.0
8356, 61.5993083900908, 59.35615663460182, 0.0
8357, 3.654249753720658, 120.0062381018361, 0.0
8358, 2.436048339191926, 118.7588471630071, 0.0
8359, 3.653895263855119, 117.5203033866697, 0.0
8360, 3.654072508787888, 118.7632707442529, 0.0
8361, 1.218083251240219, 120.0020793676229, 0.0
8362, 1.217965087951706, 117.5067677958998, 0.0
8363, 1.218024169595963, 118.7544235817613, 0.0
8364, 2.4358120126149, 116.268224019563, 0.0
8365, 1.21790600630745, 116.2591120100393, 0.0
8366, 3.653718018922349, 116.2773360290867, 0.0
8367, 61.10441728151794, 53.32767619759622, 0.0
8368, 59.86107302680516, 52.04833655149026, 0.0
8369, 60.86423324546902, 50.95977924589089, 0.0
8370, 62.1075775001818, 52.23911889199685, 0.0
8371, 60.98432526349349, 52.14372772174355, 0.0
8372, 58.87333327940007, 53.12138155861811, 0.0
8373, 57.61456855342851, 51.85755421098366, 0.0
8374, 58.6023083008336, 50.78450920385581, 0.0
8375, 58.73782079011684, 51.95294538123696, 0.0
8376, 57.32812310360328, 49.53619415469286, 0.0
8377, 59.60546851949746, 49.69595189825645, 0.0
8378, 58.46679581155037, 49.61607302647466, 0.0
8379, 61.88281393539165, 49.85570964182001, 0.0
8380, 60.74414122744456, 49.77583077003823, 0.0
8381, 96.35527367566371, 79.99200311757693, 0.0
8382, 97.57126308329353, 81.24416915898902, 0.0
8383, 96.35851557421685, 82.49050435971225, 0.0
8384, 96.35689462494028, 81.24125373864459, 0.0
8385, 98.78509122522124, 79.99733437231237, 0.0
8386, 98.7861718580723, 82.49683478635453, 0.0
8387, 98.78563154164677, 81.24708457933346, 0.0
8388, 97.57342434899562, 83.74316998707792, 0.0
8389, 98.78671217449781, 83.74658499337586, 0.0
8390, 96.36013652349342, 83.73975498077999, 0.0
8391, 95.0943518405398, 56.25305476134055, 0.0
8392, 93.88162424448498, 57.49236714803794, 0.0
8393, 92.66023379778069, 56.23277654417524, 0.0
8394, 93.87729281916023, 56.24291565275789, 0.0
8395, 95.09959230967426, 58.75397709556364, 0.0
8396, 92.67231902994516, 58.72966019107236, 0.0
8397, 93.8859556698097, 58.74181864331801, 0.0
8398, 90.24504575021606, 58.7053432865811, 0.0
8399, 91.45092858324088, 57.47006958720966, 0.0
8400, 91.45868239008061, 58.71750173882673, 0.0
8401, 90.2261157550216, 56.21249832700994, 0.0
8402, 91.44317477640115, 56.22263743559259, 0.0
8403, 21.32580541551759, 121.7445166999046, 0.0
8404, 20.20381112427778, 122.9049082375523, 0.0
8405, 20.20263003764173, 121.6960279255791, 0.0
8406, 22.45353003004769, 122.990508775167, 0.0
8407, 22.44898079339345, 121.7930054742301, 0.0
8408, 21.33153573880788, 124.1509003128147, 0.0
8409, 22.45807926670193, 124.1880120761039, 0.0
8410, 20.20499221091382, 124.1137885495256, 0.0
8411, 64.92971578101364, 153.3080315943552, 0.0
8412, 63.82153855681941, 152.1625455108598, 0.0
8413, 65.00235454925665, 152.0970919979552, 0.0
8414, 64.78443824452762, 155.7299107871551, 0.0
8415, 63.65618506277684, 154.5698535704761, 0.0
8416, 64.85707701277063, 154.5189711907551, 0.0
8417, 62.3625783869835, 155.8171044134135, 0.0
8418, 61.25440116278926, 154.6716183299181, 0.0
8419, 62.54800783858261, 153.4243674869808, 0.0
8420, 62.45529311278305, 154.6207359501971, 0.0
8421, 61.45990657194491, 152.2934525366692, 0.0
8422, 62.64072256438216, 152.2279990237645, 0.0
8423, 80.24451448083039, 118.1578510123377, 0.0
8424, 79.197517895019, 117.065430103519, 0.0
8425, 80.25784161719429, 116.9667893618654, 0.0
8426, 79.1767228571082, 119.4182315551048, 0.0
8427, 80.2311873444665, 119.34891266281, 0.0
8428, 78.12972627129682, 118.325810646286, 0.0
8429, 78.12225836974989, 119.4875504473995, 0.0
8430, 78.13719417284373, 117.1640708451725, 0.0
8431, 90.06769203364618, 168.7759866529046, 0.0
8432, 91.31314211897603, 167.5230028017679, 0.0
8433, 92.54773230318732, 168.7670684342071, 0.0
8434, 91.30228221785748, 170.0200522853439, 0.0
8435, 91.30771216841674, 168.7715275435559, 0.0
8436, 90.08066988989086, 166.2795681172464, 0.0
8437, 91.32400202009461, 165.0259533181918, 0.0
8438, 92.55647424917979, 166.2693880027132, 0.0
8439, 91.31857206953532, 166.2744780599798, 0.0
8440, 93.79768842425742, 165.0151422557408, 0.0
8441, 95.0322786084687, 166.2592078881801, 0.0
8442, 93.79106443339106, 167.5134536351526, 0.0
8443, 93.79437642882422, 166.2642979454466, 0.0
8444, 95.02777257272845, 168.7581502155098, 0.0
8445, 93.7844404425247, 170.0117650145644, 0.0
8446, 93.78775243795789, 168.7626093248585, 0.0
8447, 2.432435987717664, 83.78212087011721, 0.0
8448, 3.646337312433717, 82.55237273915426, 0.0
8449, 3.648653981576497, 83.79818130491752, 0.0
8450, 1.215445770811239, 82.51745758006273, 0.0
8451, 1.216217993858832, 83.76606043531719, 0.0
8452, 1.213901324716052, 80.02025186955332, 0.0
8453, 2.429347095527291, 81.28770944909942, 0.0
8454, 1.214673547763646, 81.2688547248079, 0.0
8455, 3.641703974148157, 80.0607556076274, 0.0
8456, 3.644020643290937, 81.30656417339083, 0.0
8457, 64.1901377716857, 50.02722991101831, 0.0
8458, 63.1420010810887, 51.13855034018643, 0.0
8459, 63.03647585353868, 49.94146977641915, 0.0
8460, 66.49746160797972, 50.19875018021661, 0.0
8461, 65.43561180769264, 51.32082248674244, 0.0
8462, 65.34379968983271, 50.11299004561746, 0.0
8463, 66.66737273400948, 52.6251669398243, 0.0
8464, 65.61923604341249, 53.73648736899241, 0.0
8465, 64.38747511709565, 52.43214291591057, 0.0
8466, 65.52742392555255, 52.52865492786742, 0.0
8467, 63.35305153618875, 53.53271146772099, 0.0
8468, 63.24752630863873, 52.33563090395371, 0.0
8469, 96.34855297613649, 74.99494720058853, 0.0
8470, 97.56682210067886, 76.24614078645229, 0.0
8471, 96.35191332590009, 77.49347515908252, 0.0
8472, 96.35023315101829, 76.24421117983552, 0.0
8473, 98.7828509920455, 74.9983157333217, 0.0
8474, 98.78397110863337, 77.49782505281644, 0.0
8475, 98.78341105033944, 76.24807039306891, 0.0
8476, 97.5690623338546, 78.74515942544707, 0.0
8477, 98.78453116692731, 78.74757971256439, 0.0
8478, 96.3535935007819, 78.74273913832972, 0.0
8479, 34.81193928817237, 18.52388854699765, 0.0
8480, 36.09065225167866, 17.28899403200511, 0.0
8481, 37.31795203640919, 18.49708205040648, 0.0
8482, 36.06494566229077, 18.51048529870206, 0.0
8483, 34.86440444736643, 16.07892845120683, 0.0
8484, 37.36831323476667, 16.05607707940948, 0.0
8485, 36.11635884106654, 16.06750276530816, 0.0
8486, 38.5956130194972, 17.26416509781085, 0.0
8487, 38.6202676284668, 16.0446513935108, 0.0
8488, 38.57095841052759, 18.48367880211091, 0.0
8489, 4.939127177475315, 153.748859802882, 0.0
8490, 6.161138288879499, 152.5116294780661, 0.0
8491, 7.393334039060391, 153.7641133520005, 0.0
8492, 6.171322927656208, 155.0013436768164, 0.0
8493, 6.166230608267853, 153.7564865774413, 0.0
8494, 4.931658136344503, 151.2561355903779, 0.0
8495, 7.380433802637786, 151.2774091670042, 0.0
8496, 6.156045969491146, 151.266772378691, 0.0
8497, 9.829209468931069, 151.2986827436305, 0.0
8498, 8.612629552818678, 152.5298930409385, 0.0
8499, 8.604821635784427, 151.2880459553173, 0.0
8500, 9.847540900645466, 153.779366901119, 0.0
8501, 8.62824538688718, 155.013587212181, 0.0
8502, 8.620437469852929, 153.7717401265598, 0.0
8503, 39.20433426122344, 99.6439587379569, 0.0
8504, 38.60977846071169, 98.32829848424475, 0.0
8505, 39.50151779956835, 97.70888812566871, 0.0
8506, 39.32896559734264, 98.67406353694352, 0.0
8507, 37.61300278367033, 98.93187621387068, 0.0
8508, 37.12348332134331, 97.63204858910866, 0.0
8509, 38.12025899838467, 97.02847085948274, 0.0
8510, 37.8666308910275, 97.98017353667672, 0.0
8511, 37.73577587424236, 95.74447586367086, 0.0
8512, 38.7217427839764, 95.1438085394038, 0.0
8513, 39.1062259081187, 96.4278035352157, 0.0
8514, 38.42100089118053, 96.08613969944327, 0.0
8515, 40.08138405054538, 95.83004661630754, 0.0
8516, 39.76841127791278, 96.76247837304643, 0.0
8517, 92.56530713933529, 163.7709877271729, 0.0
8518, 93.80467600901986, 162.5159820808619, 0.0
8519, 95.03705729394198, 163.7601366094298, 0.0
8520, 93.80118221663865, 163.7655621683013, 0.0
8521, 91.33486210396924, 162.526873253897, 0.0
8522, 91.32943206203191, 163.7764132860444, 0.0
8523, 92.57423097365381, 161.271867607586, 0.0
8524, 91.34029214590657, 161.2773332217495, 0.0
8525, 95.04210862914832, 161.2609363792589, 0.0
8526, 93.80816980140105, 161.2664019934225, 0.0
8527, 41.78163878390026, 43.58720678835967, 0.0
8528, 40.47167202751735, 44.07685852294836, 0.0
8529, 39.85922949233402, 41.97696945344234, 0.0
8530, 40.82043413811714, 42.78208812090101, 0.0
8531, 42.58381051686622, 45.50488466611548, 0.0
8532, 42.74284342968336, 44.39232545581834, 0.0
8533, 41.27384376048332, 45.99453640070418, 0.0
8534, 42.42477760404908, 46.61744387641263, 0.0
8535, 38.9719760733518, 44.74872144928728, 0.0
8536, 40.12290991691755, 45.37162892499573, 0.0
8537, 24.49355625816706, 35.89427380119951, 0.0
8538, 23.25733745645888, 37.17382211605253, 0.0
8539, 22.07760990869225, 35.96968698906731, 0.0
8540, 23.31382871040042, 34.69013867421428, 0.0
8541, 23.28558308342965, 35.93198039513341, 0.0
8542, 24.43102390741257, 38.37507648707252, 0.0
8543, 23.20084620251734, 39.6575055578908, 0.0
8544, 22.02715975156364, 38.45625118687082, 0.0
8545, 23.22909182948811, 38.41566383697167, 0.0
8546, 20.80302314348135, 39.74156101365435, 0.0
8547, 19.62329559571472, 38.53742588666913, 0.0
8548, 20.84743220379701, 37.25211605988559, 0.0
8549, 20.82522767363918, 38.49683853676997, 0.0
8550, 19.66166355921742, 36.04510017693509, 0.0
8551, 20.89184126411266, 34.76267110611681, 0.0
8552, 20.86963673395483, 36.0073935830012, 0.0
8553, 29.13812683010461, 40.73811029429214, 0.0
8554, 27.9045782674227, 42.03731038357795, 0.0
8555, 26.75482973538782, 40.80291859540738, 0.0
8556, 27.98837829806973, 39.50371850612158, 0.0
8557, 27.94647828274622, 40.77051444484977, 0.0
8558, 29.04521018348477, 43.28140008655824, 0.0
8559, 27.82077823677567, 44.5709022610343, 0.0
8560, 26.6801463207136, 43.32681255805401, 0.0
8561, 27.86267825209919, 43.30410632230612, 0.0
8562, 25.4648309899773, 44.60661681772034, 0.0
8563, 24.31508245794242, 43.37222502954978, 0.0
8564, 25.53039778867871, 42.09242076988345, 0.0
8565, 25.49761438932801, 43.3495187938019, 0.0
8566, 24.37153264067102, 40.86772689652261, 0.0
8567, 25.59596458738013, 39.57822472204654, 0.0
8568, 25.56318118802942, 40.83532274596499, 0.0
8569, 3.65316340194686, 129.975821784131, 0.0
8570, 2.436087365661395, 128.7346935668627, 0.0
8571, 3.655098695037325, 127.4782589159546, 0.0
8572, 3.654131048492093, 128.7270403500428, 0.0
8573, 1.217721133982287, 129.9919405950419, 0.0
8574, 1.218366231679108, 127.4927529723235, 0.0
8575, 1.218043682830698, 128.7423467836829, 0.0
8576, 1.21901132937593, 124.9935653496034, 0.0
8577, 2.437377561055039, 126.2363183214148, 0.0
8578, 1.218688780527519, 126.2431591609635, 0.0
8579, 3.657033988127791, 124.9806960477777, 0.0
8580, 3.656066341582558, 126.2294774818662, 0.0
8581, 3.655641870924225, 122.4934670748068, 0.0
8582, 2.436630541548294, 121.2499017257196, 0.0
8583, 3.654945812322441, 121.2498525883215, 0.0
8584, 2.437558619684006, 123.7413877077001, 0.0
8585, 3.656337929526009, 123.7370815612922, 0.0
8586, 1.218547290308075, 122.4978223586127, 0.0
8587, 1.218779309842003, 123.7456938541081, 0.0
8588, 1.218315270774147, 121.2499508631177, 0.0
8589, 4.906966365054783, 143.7593344519537, 0.0
8590, 6.120422379592996, 142.5194877772885, 0.0
8591, 7.343594107409527, 143.7886186323402, 0.0
8592, 6.125280236232155, 143.7739765421469, 0.0
8593, 4.900317353843379, 141.2495654237938, 0.0
8594, 7.330811692064293, 141.2804326010663, 0.0
8595, 6.115564522953836, 141.2649990124301, 0.0
8596, 9.761306030285208, 141.3112997783387, 0.0
8597, 8.553983419880826, 142.5495634561179, 0.0
8598, 8.546058861174751, 141.2958661897025, 0.0
8599, 9.78022184976427, 143.8179028127266, 0.0
8600, 8.561907978586898, 143.8032607225334, 0.0
8601, 72.11975377624665, 152.9655875546341, 0.0
8602, 73.27762180300371, 154.1547402127945, 0.0
8603, 72.07854051935999, 154.2000361674402, 0.0
8604, 72.20218029001995, 150.496690329022, 0.0
8605, 73.35513792739974, 151.6804338848143, 0.0
8606, 72.1609670331333, 151.7311389418281, 0.0
8607, 74.58561168917555, 150.3898711126264, 0.0
8608, 75.74347971593261, 151.5790237707868, 0.0
8609, 74.5130059541568, 152.8695865429747, 0.0
8610, 74.54930882166617, 151.6297288278006, 0.0
8611, 75.67578437029114, 154.0641483035032, 0.0
8612, 74.47670308664742, 154.1094442581488, 0.0
8613, 26.44474397396901, 141.8484475844672, 0.0
8614, 25.25939802308914, 143.0495791153418, 0.0
8615, 25.24005122615188, 141.7929341774555, 0.0
8616, 27.65868706444036, 143.1669989452368, 0.0
8617, 27.64943672178615, 141.9039609914789, 0.0
8618, 27.6771877497488, 145.6930748527526, 0.0
8619, 26.47334111356049, 144.3681304761114, 0.0
8620, 27.66793740709458, 144.4300368989947, 0.0
8621, 25.29809161696367, 145.5628689911144, 0.0
8622, 25.2787448200264, 144.3062240532281, 0.0
8623, 96.35017143504953, 69.98870870990658, 0.0
8624, 97.56651121354751, 71.24351222161621, 0.0
8625, 96.34936220559301, 72.49182795524759, 0.0
8626, 96.34976682032126, 71.24026833257709, 0.0
8627, 98.78339047834984, 69.99623623643316, 0.0
8628, 98.78312073519767, 72.49727598487753, 0.0
8629, 98.78325560677375, 71.24675611065523, 0.0
8630, 97.56597172724317, 73.74559171850883, 0.0
8631, 98.78298586362159, 73.74779585909968, 0.0
8632, 96.34895759086474, 73.74338757791806, 0.0
8633, 2.427123017706751, 78.79051472641173, 0.0
8634, 3.639665078972094, 77.56078857109178, 0.0
8635, 3.640684526560126, 78.81077208935959, 0.0
8636, 1.213221692990698, 77.52026285737443, 0.0
8637, 1.213561508853375, 78.77025736346359, 0.0
8638, 1.212542061265344, 75.02027384519633, 0.0
8639, 2.425763754256042, 76.29053670205474, 0.0
8640, 1.212881877128021, 76.27026835128538, 0.0
8641, 3.637626183796032, 75.06082153455642, 0.0
8642, 3.638645631384063, 76.31080505282411, 0.0
8643, 97.5790159448176, 116.275837918221, 0.0
8644, 96.36868143989979, 117.5437828943739, 0.0
8645, 96.36852391722641, 116.2887568775213, 0.0
8646, 98.7895604799666, 117.51459429787, 0.0
8647, 98.78950797240879, 116.2629189589205, 0.0
8648, 98.78966549508219, 120.0179449757696, 0.0
8649, 97.57922597504879, 118.7825392740232, 0.0
8650, 98.78961298752438, 118.7662696368192, 0.0
8651, 96.36899648524656, 120.0538349280794, 0.0
8652, 96.36883896257316, 118.7988089112266, 0.0
8653, 50.06083860586645, 184.0007245699169, 0.0
8654, 51.31580649219765, 182.7809095037364, 0.0
8655, 52.56722574669606, 183.9893323033645, 0.0
8656, 51.31403217628125, 183.9950284366407, 0.0
8657, 50.06173290666742, 181.5740787518063, 0.0
8658, 51.31935512403045, 180.3526716379278, 0.0
8659, 52.57342870956069, 181.5595023898579, 0.0
8660, 51.31758080811406, 181.5667905708321, 0.0
8661, 53.83370525795557, 180.3365032282812, 0.0
8662, 55.08512451245397, 181.5449260279094, 0.0
8663, 53.8248479640591, 182.767925189486, 0.0
8664, 53.82927661100734, 181.5522142088836, 0.0
8665, 55.07361288752566, 183.9779400368121, 0.0
8666, 53.82041931711085, 183.9836361700883, 0.0
8667, 9.94445372094943, 26.21909059180823, 0.0
8668, 8.697492516412497, 27.47315664470162, 0.0
8669, 7.460880743399052, 26.22932396537789, 0.0
8670, 8.707841947935982, 24.97525791248449, 0.0
8671, 8.702667232174239, 26.22420727859306, 0.0
8672, 9.931879944699293, 28.71613041015603, 0.0
8673, 8.687143084889012, 29.97105537691876, 0.0
8674, 7.452755656602214, 28.72808161146435, 0.0
8675, 8.692317800650756, 28.72210601081019, 0.0
8676, 6.210243141518579, 29.98386549209642, 0.0
8677, 4.973631368505134, 28.74003281277268, 0.0
8678, 6.216143883588769, 27.48424893214062, 0.0
8679, 6.213193512553675, 28.73405721211851, 0.0
8680, 4.977307765848676, 26.23955733894755, 0.0
8681, 6.222044625658959, 24.98463237218482, 0.0
8682, 6.219094254623864, 26.23444065216272, 0.0
8683, 75.4051244689829, 163.9887029929851, 0.0
8684, 76.65394743578676, 162.7227469313509, 0.0
8685, 77.84523716143916, 163.9402509728817, 0.0
8686, 76.62518081521102, 163.9644769829334, 0.0
8687, 75.46837047073589, 161.5078329129188, 0.0
8688, 77.89705764198911, 161.4542008466179, 0.0
8689, 76.6827140563625, 161.4810168797683, 0.0
8690, 80.32574481324231, 161.4005687803169, 0.0
8691, 79.08834736764149, 162.6717048881487, 0.0
8692, 79.11140122761569, 161.4273848134674, 0.0
8693, 80.28534985389543, 163.8917989527784, 0.0
8694, 79.06529350766729, 163.9160249628301, 0.0
8695, 13.27405531755347, 127.5953178493288, 0.0
8696, 12.08000904381109, 126.3186025629024, 0.0
8697, 13.26769440869615, 126.3517693359753, 0.0
8698, 13.28677713526812, 130.0824148760359, 0.0
8699, 12.08905070816578, 128.8081274919433, 0.0
8700, 13.2804162264108, 128.8388663626824, 0.0
8701, 10.90036594541814, 130.0233650368917, 0.0
8702, 10.8950044344234, 127.5314122055169, 0.0
8703, 10.89768518992077, 128.7773886212043, 0.0
8704, 10.89232367892603, 126.2854357898295, 0.0
8705, 3.660680620260068, 134.9794236620476, 0.0
8706, 2.439200877121178, 133.7356821285353, 0.0
8707, 3.656922011103464, 132.4776227230887, 0.0
8708, 4.878401754242355, 133.721364256601, 0.0
8709, 3.658801315681766, 133.7285231925682, 0.0
8710, 1.220226873420023, 134.9931412209905, 0.0
8711, 1.218974003701155, 132.4925409080145, 0.0
8712, 1.219600438560589, 133.7428410645018, 0.0
8713, 2.436695137683441, 131.234481502569, 0.0
8714, 1.218347568841721, 131.2422407515299, 0.0
8715, 4.873390275366883, 131.2189630046507, 0.0
8716, 3.655042706525162, 131.2267222536099, 0.0
8717, 14.66849141510042, 48.61890304126887, 0.0
8718, 15.88077553954285, 47.35075124442061, 0.0
8719, 17.06455057529286, 48.58163933603626, 0.0
8720, 15.86652099519664, 48.60027118865256, 0.0
8721, 14.69356894185923, 46.12450701914008, 0.0
8722, 17.09649122591891, 46.07795558123723, 0.0
8723, 15.89503008388907, 46.10123130018866, 0.0
8724, 18.28026626166891, 47.30884367285287, 0.0
8725, 18.29795236794875, 46.05467986228579, 0.0
8726, 18.26258015538907, 48.56300748341995, 0.0
8727, 2.4268257422456, 73.78794466223604, 0.0
8728, 3.642851042940767, 72.5530124516398, 0.0
8729, 3.6402386133684, 73.80691699309811, 0.0
8730, 1.214283680980256, 72.51767081755162, 0.0
8731, 1.2134128711228, 73.76897233137419, 0.0
8732, 1.216025300695167, 70.01506778990588, 0.0
8733, 2.430308981675423, 71.28273860695504, 0.0
8734, 1.215154490837711, 71.26636930372798, 0.0
8735, 3.648075902085502, 70.04520336872287, 0.0
8736, 3.645463472513134, 71.29910791018133, 0.0
8737, 96.33918050720519, 64.9963291665064, 0.0
8738, 97.56128549277751, 66.24628270147183, 0.0
8739, 96.34467597112736, 67.49251893820649, 0.0
8740, 96.34192823916626, 66.24442405235645, 0.0
8741, 98.77972683573506, 64.99877638863856, 0.0
8742, 98.78155865704245, 67.49750631253586, 0.0
8743, 98.78064274638875, 66.2481413505872, 0.0
8744, 97.5649491353923, 68.74374254927052, 0.0
8745, 98.78247456769614, 68.7468712744846, 0.0
8746, 96.34742370308844, 68.74061382405652, 0.0
8747, 97.57788675237214, 121.2877534275913, 0.0
8748, 96.36466377186984, 122.5594253550822, 0.0
8749, 96.3668301285582, 121.3066301415808, 0.0
8750, 98.78822125728995, 122.5198084514342, 0.0
8751, 98.78894337618607, 121.2688767136021, 0.0
8752, 98.7867770194977, 125.0216719270994, 0.0
8753, 97.57499827678765, 123.7914803789252, 0.0
8754, 98.78749913839383, 123.7707401892665, 0.0
8755, 96.36033105849312, 125.0650157820852, 0.0
8756, 96.36249741518148, 123.8122205685837, 0.0
8757, 28.28174926601578, 165.4123383511959, 0.0
8758, 27.01260069220622, 164.1343915939845, 0.0
8759, 28.18420665633487, 162.9449552360745, 0.0
8760, 28.23297796117532, 164.1786467936352, 0.0
8761, 25.83193291961922, 165.3272878146781, 0.0
8762, 24.57184615426802, 164.0458811946832, 0.0
8763, 25.75251392685502, 162.8529849739897, 0.0
8764, 25.79222342323712, 164.0901363943339, 0.0
8765, 24.50148896996219, 161.5681184912114, 0.0
8766, 25.67309493409083, 160.3786821333014, 0.0
8767, 26.92411989098367, 161.6635486160796, 0.0
8768, 25.71280443047293, 161.6158335536455, 0.0
8769, 28.08666404665395, 160.477572120953, 0.0
8770, 28.13543535149441, 161.7112636785137, 0.0
8771, 3.682718152995365, 145.0106642246229, 0.0
8772, 2.453483182527392, 143.7546672261763, 0.0
8773, 3.677731394586811, 142.503337453507, 0.0
8774, 3.680224773791088, 143.757000839065, 0.0
8775, 1.227572717665122, 145.0035547418015, 0.0
8776, 1.22591046486227, 142.5011124847736, 0.0
8777, 1.226741591263696, 143.7523336132875, 0.0
8778, 1.224248212059419, 139.9986702277482, 0.0
8779, 2.450158676921689, 141.2497827121052, 0.0
8780, 1.225079338460845, 141.2498913562615, 0.0
8781, 3.672744636178257, 139.996010682392, 0.0
8782, 3.675238015382534, 141.2496740679495, 0.0
8783, 3.666712628219163, 137.4877171722195, 0.0
8784, 2.442464416159744, 136.2390469449065, 0.0
8785, 3.663696624239616, 136.2335704171336, 0.0
8786, 2.44648575479914, 138.7445759516821, 0.0
8787, 3.669728632198709, 138.7418639273058, 0.0
8788, 1.222237542739721, 137.4959057243685, 0.0
8789, 1.22324287739957, 138.7472879760581, 0.0
8790, 1.221232208079872, 136.2445234726795, 0.0
8791, 4.909772796543365, 53.72133384095531, 0.0
8792, 6.132261999750979, 52.45884687055845, 0.0
8793, 7.344347651744052, 53.70120720860209, 0.0
8794, 6.127060224143708, 53.7112705247787, 0.0
8795, 4.916404906252186, 51.21715330807689, 0.0
8796, 7.358522644464314, 51.19569312459953, 0.0
8797, 6.137463775358249, 51.20642321633821, 0.0
8798, 8.570608296457387, 52.43805346264315, 0.0
8799, 8.579581513570375, 51.18496303286084, 0.0
8800, 8.561635079344395, 53.69114389242546, 0.0
8801, 30.40386348935204, 64.9705483231752, 0.0
8802, 30.01390568234034, 63.48595756502525, 0.0
8803, 31.31513579289079, 62.77658691457263, 0.0
8804, 31.7050935999025, 64.26117767272257, 0.0
8805, 30.85949964112142, 63.87356761887391, 0.0
8806, 28.98047061176327, 64.06777878448509, 0.0
8807, 29.35615283535524, 62.12891623786807, 0.0
8808, 29.16831172355926, 63.09834751117658, 0.0
8809, 30.6573829459057, 61.41954558741546, 0.0
8810, 29.54399394715122, 61.15948496455957, 0.0
8811, 32.88416094341464, 61.93966683312725, 0.0
8812, 31.77077194466017, 61.67960621027135, 0.0
8813, 29.91434347765485, 13.65619099716415, 0.0
8814, 31.17759347825697, 12.41330855797156, 0.0
8815, 32.41031709857319, 13.64007766491484, 0.0
8816, 31.14706709797106, 14.88296010410743, 0.0
8817, 31.16233028811402, 13.6481343310395, 0.0
8818, 29.94460952301736, 11.18497831608026, 0.0
8819, 31.20811985854289, 9.943657011835686, 0.0
8820, 32.4411038137825, 11.17198725372699, 0.0
8821, 31.19285666839993, 11.17848278490362, 0.0
8822, 33.70487448423145, 9.932227084430437, 0.0
8823, 33.67382743409872, 12.39875636067026, 0.0
8824, 33.68935095916508, 11.16549172255035, 0.0
8825, 33.64278038396598, 14.86528563691009, 0.0
8826, 33.65830390903236, 13.63202099879018, 0.0
8827, 86.33629778486215, 172.544672932985, 0.0
8828, 87.56722072310313, 173.7847650898279, 0.0
8829, 86.31850420545996, 175.0386630469775, 0.0
8830, 86.32740099516106, 173.7916679899812, 0.0
8831, 86.35409136426438, 170.0506828189924, 0.0
8832, 87.58227042637941, 171.2894909318801, 0.0
8833, 86.34519457456328, 171.2976778759887, 0.0
8834, 88.82549919177069, 170.0330248868199, 0.0
8835, 90.05642213001167, 171.2731170436628, 0.0
8836, 88.81319336462039, 172.529583088723, 0.0
8837, 88.81934627819552, 171.2813039877715, 0.0
8838, 90.0468601789873, 173.7709592895212, 0.0
8839, 88.80088753747006, 175.0261412906261, 0.0
8840, 88.80704045104522, 173.7778621896746, 0.0
8841, 96.33291995769315, 62.49982893172187, 0.0
8842, 97.55736682163277, 63.74871936597924, 0.0
8843, 96.33605023244917, 63.74807904911414, 0.0
8844, 96.32665940818111, 60.00332869693752, 0.0
8845, 97.55319312195809, 61.25105254279292, 0.0
8846, 96.32978968293713, 61.25157881432969, 0.0
8847, 98.77555313606038, 60.00110956546216, 0.0
8848, 98.77763998589771, 62.49994297705012, 0.0
8849, 98.77659656097904, 61.25052627125613, 0.0
8850, 98.77868341081638, 63.7493596828444, 0.0
8851, 96.31879870447943, 55.00194519560935, 0.0
8852, 97.5471759202699, 56.25152738054216, 0.0
8853, 96.32272905633027, 57.50263694627335, 0.0
8854, 96.32076388040485, 56.25229107094135, 0.0
8855, 98.77293290149314, 55.00064839837007, 0.0
8856, 98.77424301877676, 57.50087898191586, 0.0
8857, 98.77358796013495, 56.25076369014297, 0.0
8858, 97.54979615483714, 58.75198854764722, 0.0
8859, 98.77489807741857, 58.7509942736889, 0.0
8860, 96.3246942322557, 58.75298282160543, 0.0
8861, 40.03324064878871, 188.8823942695385, 0.0
8862, 41.28464134315684, 187.6584401613584, 0.0
8863, 42.53761222706142, 188.8864755301528, 0.0
8864, 41.28542643792506, 188.8844348998456, 0.0
8865, 40.03037161248781, 186.428725839347, 0.0
8866, 41.28307115362037, 185.206450684384, 0.0
8867, 42.53734088428939, 186.4361650063955, 0.0
8868, 41.2838562483886, 186.4324454228712, 0.0
8869, 43.79133927218639, 185.2155688046496, 0.0
8870, 45.04431015609098, 186.443604173444, 0.0
8871, 43.79031176819399, 187.6642003751898, 0.0
8872, 43.7908255201902, 186.4398845899197, 0.0
8873, 45.04198380533414, 188.8905567907671, 0.0
8874, 43.78979801619778, 188.8885161604599, 0.0
8875, 68.80688347135822, 14.8942141962603, 0.0
8876, 67.54899817608899, 13.64730386009257, 0.0
8877, 68.79012133076507, 12.41899718752572, 0.0
8878, 70.04800662603431, 13.66590752369345, 0.0
8879, 68.79850240106164, 13.65660569189301, 0.0
8880, 66.30845293511115, 14.87275982424429, 0.0
8881, 65.04998972614365, 13.62870019649168, 0.0
8882, 66.29053496712147, 12.40324423233996, 0.0
8883, 66.29949395111632, 13.63800202829212, 0.0
8884, 65.0314938444557, 11.16203531300248, 0.0
8885, 66.27261699913177, 9.933728640435632, 0.0
8886, 67.53165812179756, 11.17493755977311, 0.0
8887, 66.28157598312663, 11.16848643638779, 0.0
8888, 68.77335919017193, 9.943780178791133, 0.0
8889, 70.03182239913944, 11.18783980654374, 0.0
8890, 68.78174026046851, 11.18138868315842, 0.0
8891, 63.57882902007977, 42.78966053941166, 0.0
8892, 64.69180619713885, 41.63276383384299, 0.0
8893, 64.78105054941219, 42.84739871235186, 0.0
8894, 61.17438596141494, 42.67418419353127, 0.0
8895, 62.26822131538098, 41.52438537549979, 0.0
8896, 62.37660749074736, 42.73192236647147, 0.0
8897, 60.93847178758918, 40.26620809912509, 0.0
8898, 62.05144896464826, 39.10931139355642, 0.0
8899, 63.38119849244006, 40.36748866993112, 0.0
8900, 62.15983514001462, 40.31684838452811, 0.0
8901, 64.51331749259217, 39.20349407682528, 0.0
8902, 64.6025618448655, 40.41812895533413, 0.0
8903, 97.57256367034122, 126.2933763581672, 0.0
8904, 96.35735995253054, 127.5651132928073, 0.0
8905, 96.35884550551184, 126.3150645374462, 0.0
8906, 98.7857866508435, 127.5217044306769, 0.0
8907, 98.7862818351706, 126.2716881788884, 0.0
8908, 98.78479628218932, 130.0217369342546, 0.0
8909, 97.57058293303282, 128.7934413653171, 0.0
8910, 98.78529146651641, 128.7717206824653, 0.0
8911, 96.35438884656796, 130.0652108035295, 0.0
8912, 96.35587439954924, 128.8151620481684, 0.0
8913, 2.433400700819847, 68.77640313988553, 0.0
8914, 3.65212620037404, 67.53400605044473, 0.0
8915, 3.650101051229771, 68.78960470958378, 0.0
8916, 1.21737540012468, 67.51133535046866, 0.0
8917, 1.216700350409924, 68.7632015701871, 0.0
8918, 1.218725499554193, 65.00760291102993, 0.0
8919, 2.436100899678873, 66.26893826102736, 0.0
8920, 1.218050449839437, 66.25946913074905, 0.0
8921, 3.65617649866258, 65.02280873216608, 0.0
8922, 3.65415134951831, 66.27840739130541, 0.0
8923, 60.06447291585785, 186.3868359387249, 0.0
8924, 58.80443247014895, 187.6251597654682, 0.0
8925, 57.56241279993741, 186.4034836758807, 0.0
8926, 58.82245324564631, 185.1651598491374, 0.0
8927, 58.81344285789763, 186.3951598073028, 0.0
8928, 60.04544814255773, 188.8497129126506, 0.0
8929, 58.78641169465158, 190.085159681799, 0.0
8930, 57.5453960222428, 188.8606065346166, 0.0
8931, 58.79542208240026, 188.8551597236336, 0.0
8932, 56.28736357213941, 190.09317624617, 0.0
8933, 56.30337635203126, 187.6389304450291, 0.0
8934, 56.29536996208533, 188.8660533455995, 0.0
8935, 56.3193891319231, 185.1846846438881, 0.0
8936, 56.31138274197718, 186.4118075444586, 0.0
8937, 11.0427882652206, 47.41412093163325, 0.0
8938, 12.244630777886, 48.64671869288485, 0.0
8939, 11.03270045927879, 48.66062651869284, 0.0
8940, 12.26644036139469, 46.15324590276246, 0.0
8941, 11.05287607116242, 46.16761534457365, 0.0
8942, 13.46828287406009, 47.38584366401406, 0.0
8943, 13.48000465162696, 46.13887646095127, 0.0
8944, 13.45656109649321, 48.63281086707686, 0.0
8945, 53.74345780930192, 12.33932527841833, 0.0
8946, 52.48759822921972, 11.11156681719021, 0.0
8947, 53.74335033483726, 11.11363116815397, 0.0
8948, 52.48437910647651, 13.56146368979691, 0.0
8949, 53.74356528376656, 13.56501938868269, 0.0
8950, 49.96600675189639, 13.55435229202536, 0.0
8951, 51.22851952639432, 12.33370522856879, 0.0
8952, 51.22519292918645, 13.55790799091114, 0.0
8953, 49.97609401798464, 11.10743811526269, 0.0
8954, 51.23184612360217, 11.10950246622645, 0.0
8955, 46.89109659973678, 161.4190247474861, 0.0
8956, 45.62892838072744, 162.9869992920312, 0.0
8957, 45.50667143798194, 161.6696681946094, 0.0
8958, 49.65994692324647, 160.9177378532397, 0.0
8959, 48.35449952239197, 162.6371222040506, 0.0
8960, 48.27552176149162, 161.1683813003629, 0.0
8961, 49.774623263202, 164.0066294668811, 0.0
8962, 48.51245504419265, 165.5746040114262, 0.0
8963, 47.09233130338262, 164.2050967485957, 0.0
8964, 48.43347728329232, 164.1058631077384, 0.0
8965, 45.87344226621843, 165.6216614868748, 0.0
8966, 45.75118532347293, 164.304330389453, 0.0
8967, 20.58521614039359, 52.31575449326149, 0.0
8968, 21.74341018427175, 53.57517726929476, 0.0
8969, 20.54622605909042, 54.85454274692135, 0.0
8970, 20.56572109974201, 53.58514862009142, 0.0
8971, 21.78593979152716, 51.0271064928749, 0.0
8972, 20.60471118104517, 51.04636036643156, 0.0
8973, 22.94413383540531, 52.28652926890818, 0.0
8974, 22.96716840200915, 51.00785261931824, 0.0
8975, 22.89806470219765, 54.84388256808804, 0.0
8976, 22.92109926880148, 53.56520591849811, 0.0
8977, 37.46429790170824, 8.679446702325988, 0.0
8978, 38.72301782314059, 7.438382112744917, 0.0
8979, 38.71543575211597, 8.67505736295975, 0.0
8980, 34.96202220089279, 8.688225381058462, 0.0
8981, 36.22153434418676, 7.446086465174383, 0.0
8982, 36.21316005130051, 8.683836041692228, 0.0
8983, 34.9795630085269, 6.211651901719767, 0.0
8984, 36.23828292995924, 4.970587312138696, 0.0
8985, 37.48025426561911, 6.205021875593312, 0.0
8986, 36.229908637073, 6.20833688865654, 0.0
8987, 38.73818196518985, 4.96503161231525, 0.0
8988, 38.73059989416522, 6.201706862530084, 0.0
8989, 53.76411674210979, 195.0403155889323, 0.0
8990, 52.52097069696521, 193.8073923986981, 0.0
8991, 53.77633627021639, 192.5707090363263, 0.0
8992, 55.01948231536097, 193.8036322265605, 0.0
8993, 53.7702265061631, 193.8055123126293, 0.0
8994, 51.26562372595565, 195.0427171815394, 0.0
8995, 51.27780604957898, 192.5758277879945, 0.0
8996, 51.27171488776732, 193.809272484767, 0.0
8997, 52.53317162283016, 191.3391444256227, 0.0
8998, 51.28389721139064, 191.342383091222, 0.0
8999, 55.03172044570921, 191.3326670944238, 0.0
9000, 53.78244603426968, 191.3359057600232, 0.0
9001, 12.25576671464893, 151.3449780779775, 0.0
9002, 11.05249381686016, 152.5617956270138, 0.0
9003, 11.04248809179, 151.321830410804, 0.0
9004, 13.48073108100394, 152.6073372362918, 0.0
9005, 13.46904533750786, 151.368125745151, 0.0
9006, 13.50410256799611, 155.0857602185733, 0.0
9007, 12.27745818321517, 153.8241547853281, 0.0
9008, 13.49241682450002, 153.8465487274326, 0.0
9009, 11.07250526700048, 155.0417260594333, 0.0
9010, 11.06249954193032, 153.8017608432235, 0.0
9011, 33.59221801839221, 17.31414538582271, 0.0
9012, 32.37059395499178, 16.10050257152597, 0.0
9013, 33.6174992011791, 16.08971551136641, 0.0
9014, 33.54165565281843, 19.76300513473533, 0.0
9015, 32.32193438303827, 18.5532619735604, 0.0
9016, 33.56693683560532, 18.53857526027902, 0.0
9017, 31.0535535413046, 19.79627821441988, 0.0
9018, 29.83192947790416, 18.58263540012315, 0.0
9019, 31.10031031963783, 17.33961915926366, 0.0
9020, 31.07693193047121, 18.56794868684177, 0.0
9021, 29.87678346261711, 16.12207669184512, 0.0
9022, 31.12368870880444, 16.11128963168554, 0.0
9023, 77.56196830063769, 18.67314551170617, 0.0
9024, 78.79831767156091, 17.43988344823091, 0.0
9025, 80.05060978366318, 18.68997323763275, 0.0
9026, 78.80628904215041, 18.68155937466946, 0.0
9027, 75.07332681761218, 18.65631778577959, 0.0
9028, 76.30798849550939, 17.425056711368, 0.0
9029, 76.31764755912494, 18.66473164874288, 0.0
9030, 75.05232099735507, 16.17896890009349, 0.0
9031, 76.28867036827832, 14.94570683661822, 0.0
9032, 77.54433786643264, 16.19179464789273, 0.0
9033, 76.29832943189386, 16.18538177399311, 0.0
9034, 78.7823749303819, 14.95653159535381, 0.0
9035, 80.0363547355102, 16.20462039569198, 0.0
9036, 78.79034630097142, 16.19820752179236, 0.0
9037, 22.2458046746027, 168.9370283457072, 0.0
9038, 23.44536708000101, 167.7276054980707, 0.0
9039, 24.70297968356891, 168.9975282846338, 0.0
9040, 23.4743921790858, 168.9672783151705, 0.0
9041, 19.78862966563649, 168.8765284067806, 0.0
9042, 20.99411183096387, 167.6629370837542, 0.0
9043, 21.01721717011959, 168.9067783762439, 0.0
9044, 19.74833874725411, 166.3846773464113, 0.0
9045, 20.94790115265242, 165.1752544987747, 0.0
9046, 22.19367423636218, 166.4535142361177, 0.0
9047, 20.97100649180815, 166.4190957912645, 0.0
9048, 23.38731688183143, 165.248259863871, 0.0
9049, 24.63900972547026, 166.522351125824, 0.0
9050, 23.41634198091622, 166.4879326809709, 0.0
9051, 58.96122966115962, 29.38219384286504, 0.0
9052, 57.65625337449516, 28.15265603817227, 0.0
9053, 58.91437577220583, 26.96619070179797, 0.0
9054, 60.21935205887029, 28.19572850649073, 0.0
9055, 58.93780271668273, 28.1741922723315, 0.0
9056, 56.39518080256981, 29.33680201894628, 0.0
9057, 55.09315469012003, 28.10958356985382, 0.0
9058, 56.35422726204537, 26.92543758907981, 0.0
9059, 56.37470403230759, 28.13111980401305, 0.0
9060, 55.05515132381026, 25.70053849558766, 0.0
9061, 56.31327372152094, 24.51407315921335, 0.0
9062, 57.61234965975605, 25.73897225270551, 0.0
9063, 56.33375049178315, 25.71975537414658, 0.0
9064, 58.86752188325205, 24.5501875607309, 0.0
9065, 60.16954799570183, 25.77740600982336, 0.0
9066, 58.89094882772895, 25.75818913126444, 0.0
9067, 74.00253348441777, 29.73361331251776, 0.0
9068, 72.74592581111474, 28.47713641431671, 0.0
9069, 73.95606195774951, 27.27355445850959, 0.0
9070, 73.97929772108364, 28.50358388551367, 0.0
9071, 71.53890754296383, 29.67666616098516, 0.0
9072, 70.27918199117696, 28.42424147192278, 0.0
9073, 71.48620025932787, 27.22471172525432, 0.0
9074, 71.51255390114585, 28.45068894311974, 0.0
9075, 70.22335682905717, 25.97633924533059, 0.0
9076, 71.43349297569193, 24.77275728952348, 0.0
9077, 72.69633640596264, 26.0211297694472, 0.0
9078, 71.4598466175099, 25.9987345073889, 0.0
9079, 73.90959043108126, 24.81349560450142, 0.0
9080, 73.93282619441538, 26.0435250315055, 0.0
9081, 97.56597970143287, 131.2902899895228, 0.0
9082, 96.34355025773067, 132.5556591654156, 0.0
9083, 96.34896955214931, 131.3104349844726, 0.0
9084, 98.78118341924355, 132.5185530548916, 0.0
9085, 98.78298985071643, 131.2701449945732, 0.0
9086, 98.7775705562978, 135.0153691755305, 0.0
9087, 97.55875397554135, 133.7839222307851, 0.0
9088, 98.77937698777068, 133.7669611152098, 0.0
9089, 96.33271166889338, 135.0461075273025, 0.0
9090, 96.33813096331201, 133.8008833463591, 0.0
9091, 96.32779320943197, 137.5346498046796, 0.0
9092, 97.55022265313417, 138.7692806288005, 0.0
9093, 96.32287474997055, 140.0231920820561, 0.0
9094, 96.32533397970124, 138.7789209433679, 0.0
9095, 97.55350162610846, 136.2769191105447, 0.0
9096, 96.33025243916268, 136.2903786659911, 0.0
9097, 98.77593106981067, 137.5115499346662, 0.0
9098, 98.77675081305424, 136.2634595550996, 0.0
9099, 98.77429158332352, 140.0077306937999, 0.0
9100, 98.7751113265671, 138.759640314233, 0.0
9101, 24.73548866279801, 26.0329307725744, 0.0
9102, 23.48100781024019, 27.28666077108201, 0.0
9103, 22.279658852819, 26.07564709169045, 0.0
9104, 23.53413970537682, 24.82191709318284, 0.0
9105, 23.50757375780851, 26.05428893213243, 0.0
9106, 24.67777593306322, 28.49317389389769, 0.0
9107, 23.42787591510357, 29.75140444898118, 0.0
9108, 22.23110779228054, 28.54489132616549, 0.0
9109, 23.45444186267188, 28.51903261003159, 0.0
9110, 20.98578860891904, 29.80762243782485, 0.0
9111, 19.78443965149786, 28.59660875843329, 0.0
9112, 21.02975883485935, 27.33387764677394, 0.0
9113, 21.0077737218892, 28.57075004229939, 0.0
9114, 19.82382904284, 26.11836341080651, 0.0
9115, 21.07372906079966, 24.86013285572303, 0.0
9116, 21.05174394782951, 26.09700525124848, 0.0
9117, 68.84742746816354, 182.6238266302698, 0.0
9118, 67.61589998406939, 181.4041359164096, 0.0
9119, 68.87935351901018, 180.1559522929265, 0.0
9120, 68.86339049358686, 181.3898894615982, 0.0
9121, 68.81550141731691, 185.0917009676131, 0.0
9122, 67.58429395868708, 183.8688418884705, 0.0
9123, 68.83146444274023, 183.8577637989415, 0.0
9124, 66.32148047467496, 185.1106887813887, 0.0
9125, 66.35276647459293, 182.6491511746103, 0.0
9126, 66.33712347463396, 183.8799199779995, 0.0
9127, 66.3840524745109, 180.1876135678319, 0.0
9128, 66.36840947455191, 181.4183823712211, 0.0
9129, 87.65249033887535, 41.18808330359055, 0.0
9130, 86.44038575546753, 42.41898912480997, 0.0
9131, 85.19989488990126, 41.15266429954416, 0.0
9132, 86.4261926143883, 41.17037380156735, 0.0
9133, 90.10508578784945, 41.22350230763692, 0.0
9134, 88.88857194509674, 42.45656796585403, 0.0
9135, 88.8787880633624, 41.20579280561373, 0.0
9136, 90.12024429197328, 43.72721246511519, 0.0
9137, 87.67646736168894, 43.68747378707346, 0.0
9138, 88.89835582683111, 43.70734312609432, 0.0
9139, 85.23269043140459, 43.64773510903172, 0.0
9140, 86.45457889654676, 43.66760444805259, 0.0
9141, 69.06073670248819, 29.61698830687084, 0.0
9142, 67.7856891971419, 28.36566513297605, 0.0
9143, 69.00413448583068, 27.17291829802799, 0.0
9144, 69.03243559415942, 28.39495330244941, 0.0
9145, 66.56802096299086, 29.55457975017477, 0.0
9146, 65.29219640310686, 28.30708879402932, 0.0
9147, 66.5098646372579, 27.11817417683059, 0.0
9148, 66.53894280012439, 28.33637696350268, 0.0
9149, 65.23326302283618, 25.87451543843446, 0.0
9150, 66.45170831152495, 24.6817686034864, 0.0
9151, 67.72830992594668, 25.92542734188253, 0.0
9152, 66.48078647439144, 25.8999713901585, 0.0
9153, 68.94753226917317, 24.72884828918514, 0.0
9154, 68.97583337750191, 25.95088329360657, 0.0
9155, 2.439951967330107, 63.7613745906541, 0.0
9156, 3.663679403327741, 62.51131503934463, 0.0
9157, 3.65992795099516, 63.76706188575537, 0.0
9158, 1.221226467775914, 62.50377168007574, 0.0
9159, 1.219975983665053, 63.75568729555214, 0.0
9160, 1.223727435997634, 59.99994044912575, 0.0
9161, 2.444953903773548, 61.25371212876767, 0.0
9162, 1.222476951886774, 61.25185606460074, 0.0
9163, 3.671182307992903, 59.99982134652457, 0.0
9164, 3.667430855660322, 61.2555681929346, 0.0
9165, 3.67551243212981, 57.48994471358375, 0.0
9166, 2.451784996132175, 56.24000426487546, 0.0
9167, 3.679842556266716, 54.9800680806436, 0.0
9168, 3.677677494198263, 56.23500639711368, 0.0
9169, 2.448898246707571, 58.7465886868417, 0.0
9170, 3.673347370061356, 58.74488303005417, 0.0
9171, 1.225170810709937, 57.49664823813274, 0.0
9172, 1.224449123353786, 58.74829434363058, 0.0
9173, 1.226614185422239, 54.99335602714175, 0.0
9174, 1.225892498066088, 56.24500213263763, 0.0
9175, 3.695942711834323, 150.0073301131832, 0.0
9176, 2.461757714749722, 148.7554424274839, 0.0
9177, 3.689330432414843, 147.5089971689035, 0.0
9178, 3.692636572124583, 148.7581636410433, 0.0
9179, 1.231980903944774, 150.0024433712979, 0.0
9180, 1.229776810804948, 147.5029990565511, 0.0
9181, 1.230878857374861, 148.7527212139248, 0.0
9182, 2.457349528470069, 146.2565537979698, 0.0
9183, 1.228674764235035, 146.253276899176, 0.0
9184, 3.686024292705104, 146.2598306967632, 0.0
9185, 61.2840107463216, 190.0754668252773, 0.0
9186, 62.52637455935258, 191.3093896587277, 0.0
9187, 61.27230128033213, 192.5531838969124, 0.0
9188, 60.02993746730115, 191.319261063462, 0.0
9189, 61.27815601332686, 191.3143253610949, 0.0
9190, 63.78016072714948, 190.0640976766051, 0.0
9191, 65.02281165140403, 191.2995182539934, 0.0
9192, 63.76902548360712, 192.544810236116, 0.0
9193, 63.7745931053783, 191.3044539563606, 0.0
9194, 65.01196351908523, 193.7817285574422, 0.0
9195, 63.75789024006478, 195.025522795627, 0.0
9196, 62.51495220458668, 193.7886044743007, 0.0
9197, 63.76345786183595, 193.7851665158715, 0.0
9198, 61.26059181434267, 195.0309009685474, 0.0
9199, 60.01794089008813, 193.7954803911591, 0.0
9200, 61.2664465473374, 193.7920424327299, 0.0
9201, 82.80899631745083, 43.58624555460793, 0.0
9202, 84.00211638328223, 42.3703213727264, 0.0
9203, 84.02084337442773, 43.61699033181983, 0.0
9204, 80.38530220349708, 43.52475600018414, 0.0
9205, 81.57376382854085, 42.31056470960332, 0.0
9206, 81.59714926047394, 43.55550077739603, 0.0
9207, 80.33387289884323, 41.03661675589942, 0.0
9208, 81.52699296467462, 39.8206925740179, 0.0
9209, 82.76688389437224, 41.09464052772179, 0.0
9210, 81.55037839660774, 41.0656286418106, 0.0
9211, 83.96466240099127, 39.87698345453956, 0.0
9212, 83.98338939213674, 41.12365241363297, 0.0
9213, 20.93881493651585, 32.28514677197083, 0.0
9214, 22.12883430594523, 33.48968202847492, 0.0
9215, 20.91532810031426, 33.52390893904382, 0.0
9216, 22.18083294332262, 31.01623630509365, 0.0
9217, 20.96230177271745, 31.04638460489784, 0.0
9218, 24.61789528453295, 30.95593970548526, 0.0
9219, 23.370852312752, 32.22077156159773, 0.0
9220, 23.39936411392779, 30.98608800528945, 0.0
9221, 24.55584671720719, 33.42122820733709, 0.0
9222, 23.34234051157621, 33.45545511790601, 0.0
9223, 62.58958463767108, 18.51756418849556, 0.0
9224, 63.83273557878421, 17.30541216557717, 0.0
9225, 65.10388118102739, 18.54597952460177, 0.0
9226, 63.84673290934924, 18.53177185654867, 0.0
9227, 60.07528809431476, 18.48914885238936, 0.0
9228, 61.32020671699104, 17.28024203843831, 0.0
9229, 61.33243636599292, 18.50335652044246, 0.0
9230, 60.05259647787413, 16.0461650973484, 0.0
9231, 61.29574741898726, 14.83401307443001, 0.0
9232, 62.56335765810417, 16.06809001551992, 0.0
9233, 61.30797706798915, 16.05712755643416, 0.0
9234, 63.80474091765417, 14.85269278363419, 0.0
9235, 65.07411883833421, 16.09001493369144, 0.0
9236, 63.81873824821919, 16.07905247460568, 0.0
9237, 79.53626410138776, 137.7499340337544, 0.0
9238, 78.36013557453884, 136.5058701254976, 0.0
9239, 79.56460029966202, 136.5032241450776, 0.0
9240, 78.30062505816062, 139.0169969495367, 0.0
9241, 79.50792790311351, 138.9966439224312, 0.0
9242, 77.1244965313117, 137.7729330412799, 0.0
9243, 77.09332221320776, 139.0373499766421, 0.0
9244, 77.15567084941567, 136.5085161059176, 0.0
9245, 96.30242873929856, 50.00529188530744, 0.0
9246, 97.53768082039585, 51.25297014184516, 0.0
9247, 96.310613721889, 52.50361854045832, 0.0
9248, 96.30652123059377, 51.25445521288287, 0.0
9249, 98.76747624643285, 50.00176396162006, 0.0
9250, 98.770204573963, 52.50120617999482, 0.0
9251, 98.76884041019792, 51.25148507080748, 0.0
9252, 97.54313747545615, 53.75185457860815, 0.0
9253, 98.77156873772807, 53.75092728918254, 0.0
9254, 96.31470621318421, 53.75278186803384, 0.0
9255, 31.07827025523071, 175.3144857215376, 0.0
9256, 32.35794228304681, 176.5644395894386, 0.0
9257, 31.12664609392107, 177.7678631872652, 0.0
9258, 31.10245817457589, 176.5411744544014, 0.0
9259, 33.58837455320122, 175.3650963633302, 0.0
9260, 34.86891049998865, 176.6109698595131, 0.0
9261, 33.63847822983425, 177.8103130856215, 0.0
9262, 33.61342639151773, 176.5877047244759, 0.0
9263, 34.91987809559301, 179.0521062100864, 0.0
9264, 33.68858190646728, 180.255529807913, 0.0
9265, 32.40718204070851, 179.0137366834481, 0.0
9266, 33.66353006815076, 179.0329214467673, 0.0
9267, 31.17502193261143, 180.2212406529929, 0.0
9268, 31.15083401326625, 178.9945519201291, 0.0
9269, 29.77898346032816, 21.03728947339375, 0.0
9270, 28.5138519973312, 22.2805488727785, 0.0
9271, 27.3059164862469, 21.07084461887216, 0.0
9272, 28.57104794924386, 19.82758521948741, 0.0
9273, 28.54244997328753, 21.05406704613296, 0.0
9274, 29.71794540988912, 23.48603891165694, 0.0
9275, 28.45665604541855, 24.73351252606959, 0.0
9276, 27.25256263286063, 23.52802248719115, 0.0
9277, 28.48525402137487, 23.50703069942404, 0.0
9278, 25.99511536691645, 24.7797103166317, 0.0
9279, 24.78717985583215, 23.57000606272536, 0.0
9280, 26.04462712177633, 22.31831823328481, 0.0
9281, 26.01987124434639, 23.54901427495825, 0.0
9282, 24.83284951216565, 21.10439976435057, 0.0
9283, 26.09413887663622, 19.85692614993793, 0.0
9284, 26.06938299920627, 21.08762219161137, 0.0
9285, 52.91329173337697, 35.28993816564839, 0.0
9286, 51.78888718224174, 36.47743767416665, 0.0
9287, 51.62681628829077, 35.27513401807368, 0.0
9288, 55.48624262354939, 35.31954646079783, 0.0
9289, 54.33975107693485, 36.50630637304984, 0.0
9290, 54.19976717846318, 35.30474231322312, 0.0
9291, 55.74412342501343, 37.72193498418503, 0.0
9292, 53.21534652579962, 37.69380588156809, 0.0
9293, 54.47973497540652, 37.70787043287656, 0.0
9294, 51.95095807619271, 37.67974133025962, 0.0
9295, 30.30497242993816, 42.065298186092, 0.0
9296, 31.44503422651979, 43.40903220095944, 0.0
9297, 30.1852719800664, 44.62513410142568, 0.0
9298, 30.24512220500228, 43.34521614375884, 0.0
9299, 30.42467287980992, 39.50546227075833, 0.0
9300, 31.59151847964347, 40.83265016255818, 0.0
9301, 30.36482265487404, 40.78538022842517, 0.0
9302, 32.90484833260069, 39.58345601595677, 0.0
9303, 34.04491012918233, 40.92719003082422, 0.0
9304, 32.7315802762251, 42.17638417742563, 0.0
9305, 32.8182143044129, 40.8799200966912, 0.0
9306, 33.84485826955481, 43.53666431536067, 0.0
9307, 32.5583122198495, 44.76931233889449, 0.0
9308, 32.6449462480373, 43.47284825816006, 0.0
9309, 62.15689993093362, 158.2324795521411, 0.0
9310, 63.29195933709055, 159.4131267217465, 0.0
9311, 62.05406070290867, 159.4401671215049, 0.0
9312, 63.47965865620056, 156.986713974105, 0.0
9313, 62.25973915895856, 157.0247919827773, 0.0
9314, 65.91949765068455, 156.9105579567604, 0.0
9315, 64.61471806235748, 158.1673611437104, 0.0
9316, 64.69957815344254, 156.9486359654327, 0.0
9317, 65.76775660545428, 159.3590459222295, 0.0
9318, 64.5298579712724, 159.386086321988, 0.0
9319, 19.93762762512473, 16.1933438401438, 0.0
9320, 18.68280231388209, 17.44089482216538, 0.0
9321, 17.44627183120144, 16.20168820380459, 0.0
9322, 18.70109714244408, 14.95413722178301, 0.0
9323, 18.69194972816308, 16.19751602197419, 0.0
9324, 19.91615225710308, 18.67739162392821, 0.0
9325, 18.66450748532009, 19.92765242254774, 0.0
9326, 17.4311575420991, 18.69115562078491, 0.0
9327, 18.67365489960109, 18.68427362235656, 0.0
9328, 16.18269330977578, 19.9441262360024, 0.0
9329, 14.94616282709513, 18.70491961764161, 0.0
9330, 16.19462705941845, 17.45194900242412, 0.0
9331, 16.18866018459711, 18.69803761921325, 0.0
9332, 14.95491603727815, 16.21003256746537, 0.0
9333, 16.20656080906113, 14.95977176884584, 0.0
9334, 16.2005939342398, 16.20586038563498, 0.0
9335, 75.01458112270026, 191.2740967695318, 0.0
9336, 73.76220834344723, 192.5223242748136, 0.0
9337, 72.51715191108299, 191.2802157984618, 0.0
9338, 73.76586651689162, 191.2771562839968, 0.0
9339, 75.00801302685456, 193.7656469864959, 0.0
9340, 73.75489199655841, 195.0126602564472, 0.0
9341, 72.50908731315108, 193.7693375447649, 0.0
9342, 73.75855017000282, 193.7674922656304, 0.0
9343, 71.25521803181186, 195.0151365793856, 0.0
9344, 70.01016159944763, 193.7730281030338, 0.0
9345, 71.26403088078686, 192.527229068413, 0.0
9346, 71.25962445629938, 193.7711828238993, 0.0
9347, 70.01972269946572, 191.2863348273918, 0.0
9348, 71.26843730527435, 191.2832753129267, 0.0
9349, 61.30405861202052, 187.611030293084, 0.0
9350, 62.54262121578439, 188.8367842057107, 0.0
9351, 61.29403467917106, 188.8432485591807, 0.0
9352, 62.56369217388209, 186.3707881152498, 0.0
9353, 61.31408254486996, 186.3788120269874, 0.0
9354, 65.06291143190633, 186.3547402917746, 0.0
9355, 63.80225477764597, 187.5965420278765, 0.0
9356, 63.81330180289422, 186.3627642035122, 0.0
9357, 65.03979428901106, 188.8238554987709, 0.0
9358, 63.79120775239772, 188.8303198522408, 0.0
9359, 74.92151331590867, 132.6333900130374, 0.0
9360, 73.93148132407572, 131.2663173627203, 0.0
9361, 75.10500300034033, 131.381228191474, 0.0
9362, 73.39400603587816, 133.780462910704, 0.0
9363, 74.738023631477, 133.8855518346008, 0.0
9364, 70.70597084468048, 133.5702850629105, 0.0
9365, 72.40397404404523, 132.4133902603869, 0.0
9366, 72.04998844027932, 133.6753739868073, 0.0
9367, 71.58443797154655, 131.0364957052128, 0.0
9368, 72.75795964781113, 131.1514065339665, 0.0
9369, 80.04676701289499, 183.7927247675212, 0.0
9370, 81.29991519159483, 182.5424470296442, 0.0
9371, 82.5373360388415, 183.7828159447259, 0.0
9372, 81.28418786014166, 185.0330936826029, 0.0
9373, 81.29205152586825, 183.7877703561236, 0.0
9374, 80.0642651849145, 181.3034521667078, 0.0
9375, 81.31564252304801, 180.0518003766855, 0.0
9376, 82.55129252972833, 181.290795239622, 0.0
9377, 81.30777885732144, 181.2971237031649, 0.0
9378, 83.80089902729549, 180.0377693974544, 0.0
9379, 85.03831987454217, 181.2781383125361, 0.0
9380, 83.78871337697501, 182.5311641547037, 0.0
9381, 83.79480620213525, 181.284466776079, 0.0
9382, 85.02790506478803, 183.7729071219308, 0.0
9383, 83.7765277266545, 185.024558911953, 0.0
9384, 83.78262055181477, 183.7778615333283, 0.0
9385, 18.50397114428262, 165.1154413324184, 0.0
9386, 17.26178204884205, 163.8487099894189, 0.0
9387, 18.46279734590734, 162.6320986768144, 0.0
9388, 19.70498644134791, 163.8988300198139, 0.0
9389, 18.48338424509498, 163.8737700046164, 0.0
9390, 16.05552685672203, 165.0688203648018, 0.0
9391, 16.02483284845622, 162.5784795836408, 0.0
9392, 16.04017985258913, 163.8236499742214, 0.0
9393, 15.99413884019041, 160.0881388024799, 0.0
9394, 17.2258481455215, 161.3618682710364, 0.0
9395, 16.00948584432332, 161.3333091930604, 0.0
9396, 18.42162354753205, 160.1487560212104, 0.0
9397, 19.65857274791788, 161.4189864269883, 0.0
9398, 18.44221044671969, 161.3904273490124, 0.0
9399, 23.57612830194959, 22.35273421675516, 0.0
9400, 22.3613956883063, 21.13188579273208, 0.0
9401, 23.61811689852236, 19.88355134032749, 0.0
9402, 23.59712260023597, 21.11814277854133, 0.0
9403, 22.32308815149426, 23.60464524721265, 0.0
9404, 23.55513400366321, 23.587325654969, 0.0
9405, 19.85899644715637, 23.63928443169994, 0.0
9406, 21.10835553785097, 22.38379682318956, 0.0
9407, 21.09104229932532, 23.6219648394563, 0.0
9408, 19.88994186444696, 21.15937182111359, 0.0
9409, 21.14298201490229, 19.9074607906561, 0.0
9410, 21.12566877637663, 21.14562880692283, 0.0
9411, 41.17478054018309, 175.4904012437544, 0.0
9412, 42.4573452422937, 176.7128917889186, 0.0
9413, 41.21124302538033, 177.9139437223826, 0.0
9414, 39.92867832326972, 176.6914531772183, 0.0
9415, 41.19301178278171, 176.7021724830685, 0.0
9416, 43.70549390278312, 175.5140149429814, 0.0
9417, 44.98601216131767, 176.7343304006188, 0.0
9418, 43.73786350082826, 177.9332072465561, 0.0
9419, 43.72167870180569, 176.7236110947687, 0.0
9420, 45.01633531578678, 179.1513476166668, 0.0
9421, 43.7702330988734, 180.3523995501308, 0.0
9422, 42.4917612839149, 179.1342591800201, 0.0
9423, 43.75404829985084, 179.1428033983434, 0.0
9424, 41.24770551057757, 180.3374862010108, 0.0
9425, 39.96718725204301, 179.1171707433733, 0.0
9426, 41.22947426797896, 179.1257149616967, 0.0
9427, 36.51293261939676, 159.5873578868454, 0.0
9428, 37.63682068925674, 158.4148059981192, 0.0
9429, 38.94806883579733, 159.6603280049923, 0.0
9430, 37.73050072759705, 159.6238429459188, 0.0
9431, 34.07779640299619, 159.5143877686984, 0.0
9432, 35.21375136973316, 158.3330610415758, 0.0
9433, 35.29536451119647, 159.5508728277719, 0.0
9434, 33.92663701694656, 157.0699893579097, 0.0
9435, 35.05052508680654, 155.8974374691835, 0.0
9436, 36.33763943959315, 157.1605091528496, 0.0
9437, 35.13213822826985, 157.1152492553796, 0.0
9438, 37.44946061257613, 155.9967321025198, 0.0
9439, 38.74864186223972, 157.2510289477894, 0.0
9440, 37.54314065091643, 157.2057690503195, 0.0
9441, 29.64913621556138, 25.93070369726102, 0.0
9442, 28.38479260932254, 27.17900840610915, 0.0
9443, 27.1923124391797, 25.98181723491771, 0.0
9444, 28.42072432737054, 25.95626046608937, 0.0
9445, 29.57255587734496, 28.37128383020601, 0.0
9446, 28.31292917322652, 29.62450428614871, 0.0
9447, 27.1251659052041, 28.43222886205185, 0.0
9448, 28.34886089127453, 28.40175634612893, 0.0
9449, 25.87025610320606, 29.69036506508913, 0.0
9450, 25.93268573506126, 27.23503769086042, 0.0
9451, 25.90147091913366, 28.46270137797477, 0.0
9452, 25.96390055098886, 26.00737400374605, 0.0
9453, 47.46616314922736, 11.11006101596629, 0.0
9454, 46.20180779472534, 12.33622943738685, 0.0
9455, 46.21119771484872, 11.1113724663181, 0.0
9456, 48.71463618820212, 12.3326732815583, 0.0
9457, 48.721128583606, 11.10874956561449, 0.0
9458, 48.70165139739437, 14.78052071344591, 0.0
9459, 47.4502808337001, 13.55884170297885, 0.0
9460, 48.70814379279824, 13.5565969975021, 0.0
9461, 46.18302795447857, 14.78594337952434, 0.0
9462, 46.19241787460195, 13.5610864084556, 0.0
9463, 89.23435755156024, 117.7034219944091, 0.0
9464, 88.08129643350921, 116.4939262497959, 0.0
9465, 89.24052355046067, 116.4497470531991, 0.0
9466, 88.06830527680553, 118.9957710648076, 0.0
9467, 89.22819155265981, 118.9570969356191, 0.0
9468, 86.91524415875449, 117.7862753201944, 0.0
9469, 86.90841900095123, 119.0344451939961, 0.0
9470, 86.92206931655774, 116.5381054463927, 0.0
9471, 7.443990609512774, 166.2425991615578, 0.0
9472, 6.210126536740853, 167.4925627185602, 0.0
9473, 4.968966842490785, 166.2387003260233, 0.0
9474, 6.206478726001779, 166.2406497437905, 0.0
9475, 8.687218633277054, 167.4965799923678, 0.0
9476, 8.68150249302377, 166.244548579325, 0.0
9477, 8.698650913783622, 170.0006428184533, 0.0
9478, 7.453354560505132, 168.7465435493702, 0.0
9479, 8.692934773530338, 168.7486114054105, 0.0
9480, 6.217422158219, 169.9963886680995, 0.0
9481, 4.974194134454722, 168.7424078372895, 0.0
9482, 6.213774347479927, 168.7444756933299, 0.0
9483, 79.09831754229121, 39.75367326069795, 0.0
9484, 77.86290985499377, 38.47462587050438, 0.0
9485, 79.05325860698578, 37.26936578792762, 0.0
9486, 80.28866629428322, 38.54841317812119, 0.0
9487, 79.0757880746385, 38.51151952431278, 0.0
9488, 76.67863613384107, 39.67592551457975, 0.0
9489, 75.43715341570434, 38.40083856288756, 0.0
9490, 76.62142713685705, 37.19953891881218, 0.0
9491, 76.65003163534907, 38.43773221669596, 0.0
9492, 75.37386938788106, 35.92841240562137, 0.0
9493, 77.81177588884906, 35.99427883623542, 0.0
9494, 76.59282263836505, 35.9613456209284, 0.0
9495, 80.24968238981708, 36.06014526684947, 0.0
9496, 79.03072913933308, 36.02721205154245, 0.0
9497, 72.6530964515645, 23.5617330774353, 0.0
9498, 73.87519282150035, 22.34738410158234, 0.0
9499, 73.8923916262908, 23.58043985304188, 0.0
9500, 70.17450610211188, 23.52431952622215, 0.0
9501, 71.39410957798444, 22.31329531413398, 0.0
9502, 71.41380127683819, 23.54302630182872, 0.0
9503, 70.13262981034107, 21.06818231459744, 0.0
9504, 71.35472618027693, 19.85383333874448, 0.0
9505, 72.61620594792029, 21.09894633828101, 0.0
9506, 71.37441787913069, 21.08356432643923, 0.0
9507, 73.84079521191947, 19.88127259866326, 0.0
9508, 73.85799401670991, 21.1143283501228, 0.0
9509, 18.57360783249811, 27.37456130557508, 0.0
9510, 17.35876100698576, 26.14920425562711, 0.0
9511, 18.60898221732765, 24.89300636085854, 0.0
9512, 18.59129502491288, 26.13378383321681, 0.0
9513, 17.32740162866882, 28.63406879743341, 0.0
9514, 18.55592064008334, 28.61533877793335, 0.0
9515, 14.87036360583979, 28.67152883643353, 0.0
9516, 16.11255480315647, 27.40871174748544, 0.0
9517, 16.09888261725431, 28.65279881693347, 0.0
9518, 14.89369297113151, 26.18004510044771, 0.0
9519, 16.13989917496079, 24.92053760858938, 0.0
9520, 16.12622698905863, 26.16462467803741, 0.0
9521, 28.6131005868274, 17.36396883058693, 0.0
9522, 27.39147034862123, 16.14224458042825, 0.0
9523, 28.65515322441094, 14.90035244168644, 0.0
9524, 28.63412690561917, 16.13216063613669, 0.0
9525, 27.3522190581671, 18.6089186499512, 0.0
9526, 28.59207426803563, 18.59577702503717, 0.0
9527, 24.87250863843004, 18.63520189977925, 0.0
9528, 26.13058881996093, 17.38719439979253, 0.0
9529, 26.11236384829857, 18.62206027486523, 0.0
9530, 24.90615723462535, 16.1624124690114, 0.0
9531, 26.16703876328565, 14.91746264964713, 0.0
9532, 26.14881379162329, 16.15232852471983, 0.0
9533, 47.54380508234105, 188.8893554614354, 0.0
9534, 48.79869778871861, 187.6643590563213, 0.0
9535, 48.7947157208445, 188.8887547967695, 0.0
9536, 46.29499725004791, 187.6661733401775, 0.0
9537, 46.2928944438376, 188.8899561261013, 0.0
9538, 46.29920286246854, 185.2186077683299, 0.0
9539, 47.54988995642547, 186.4411769350633, 0.0
9540, 46.29710005625822, 186.4423905542537, 0.0
9541, 48.80666192446683, 185.2155675754247, 0.0
9542, 48.80267985659272, 186.439963315873, 0.0
9543, 78.26767986226079, 53.35293418774435, 0.0
9544, 79.40689711197612, 52.17115319912491, 0.0
9545, 79.44134531190677, 53.40902803586964, 0.0
9546, 77.05239239228379, 52.06277451114907, 0.0
9547, 77.09401441261481, 53.29684033961905, 0.0
9548, 78.19160964199912, 50.88099352252963, 0.0
9549, 77.01077037195277, 50.82870868267908, 0.0
9550, 79.37244891204547, 50.93327836238017, 0.0
9551, 25.664844595368, 37.09555490835571, 0.0
9552, 26.82978527533555, 38.29870314332973, 0.0
9553, 25.63040459137406, 38.33688981520113, 0.0
9554, 25.73372460335586, 34.61288509466488, 0.0
9555, 26.9050129405568, 35.81416620182108, 0.0
9556, 25.69928459936193, 35.85422000151029, 0.0
9557, 28.15152894297898, 34.53091036746863, 0.0
9558, 29.31646962294654, 35.73405860244265, 0.0
9559, 28.06995362052436, 37.0173144367951, 0.0
9560, 28.11074128175167, 35.77411240213187, 0.0
9561, 29.22854664325854, 38.22232979958695, 0.0
9562, 28.02916595929705, 38.26051647145834, 0.0
9563, 86.33287856138132, 29.93433434119183, 0.0
9564, 87.57881371567255, 31.19420040315838, 0.0
9565, 86.35143471714237, 32.42909196121664, 0.0
9566, 86.34215663926184, 31.18171315120424, 0.0
9567, 88.80814788562836, 29.95806058490344, 0.0
9568, 90.05212786849395, 31.21917490706668, 0.0
9569, 88.82279369853816, 32.45531472532161, 0.0
9570, 88.81547079208326, 31.20668765511253, 0.0
9571, 90.06481850997814, 33.71767730768154, 0.0
9572, 87.59541470000798, 33.69020628337988, 0.0
9573, 88.83011660499307, 33.70394179553071, 0.0
9574, 86.36071279502289, 33.67647077122905, 0.0
9575, 13.68603814804893, 175.0341809016847, 0.0
9576, 12.43732446425377, 173.7744607169255, 0.0
9577, 13.66741060837266, 172.5316203630246, 0.0
9578, 13.67672437821079, 173.7829006323546, 0.0
9579, 11.20530899463697, 175.0175166673702, 0.0
9580, 9.958524636339723, 173.7575808860673, 0.0
9581, 11.19054010595653, 172.5145249356226, 0.0
9582, 11.19792455029675, 173.7660208014964, 0.0
9583, 9.945685073157197, 171.2543735577759, 0.0
9584, 12.42062625007541, 171.2716845817216, 0.0
9585, 11.1831556616163, 171.2630290697488, 0.0
9586, 13.65809683853452, 171.2803400936945, 0.0
9587, 69.12743652437258, 167.8517539484311, 0.0
9588, 67.91109564780058, 166.6548847493384, 0.0
9589, 69.16135652426536, 166.6204436672529, 0.0
9590, 69.05959652458705, 170.3143745107874, 0.0
9591, 67.84083071031576, 169.114540113078, 0.0
9592, 69.09351652447982, 169.0830642296093, 0.0
9593, 66.55179995855963, 170.3743610791082, 0.0
9594, 66.62448983374375, 167.9176709139852, 0.0
9595, 66.58814489615168, 169.1460159965467, 0.0
9596, 66.6608347713358, 166.6893258314238, 0.0
9597, 46.1112460147486, 170.6615425902388, 0.0
9598, 47.42159049072296, 171.881167806569, 0.0
9599, 46.17456947462423, 173.0948872801854, 0.0
9600, 44.86422499864987, 171.8752620638552, 0.0
9601, 46.14290774468642, 171.8782149352122, 0.0
9602, 48.67637177056822, 170.6678101288323, 0.0
9603, 49.97895598279604, 171.8870735492828, 0.0
9604, 48.72417470295077, 173.1004312270194, 0.0
9605, 48.7002732367595, 171.8841206779259, 0.0
9606, 50.01899865143204, 174.3193328515902, 0.0
9607, 48.77197763533331, 175.5330523252066, 0.0
9608, 47.47715368685204, 174.3141507006359, 0.0
9609, 48.74807616914204, 174.316741776113, 0.0
9610, 46.23789293449985, 175.5282319701321, 0.0
9611, 44.93530872227204, 174.3089685496817, 0.0
9612, 46.20623120456204, 174.3115596251588, 0.0
9613, 30.14780646543868, 135.5004501230627, 0.0
9614, 31.54728060363017, 136.8956853240326, 0.0
9615, 30.12944184269993, 138.1718028615747, 0.0
9616, 30.13862415406931, 136.8361264923187, 0.0
9617, 33.06345708702058, 135.5593298987733, 0.0
9618, 34.3645935027519, 137.0148029874605, 0.0
9619, 32.84841701936149, 138.3511584127197, 0.0
9620, 32.95593705319104, 136.9552441557466, 0.0
9621, 34.05121571263265, 139.8668693891241, 0.0
9622, 31.43057825843125, 139.6272759502618, 0.0
9623, 32.74089698553195, 139.747072669693, 0.0
9624, 30.12025953133056, 139.5074792308306, 0.0
9625, 14.77416016052364, 38.64714207256246, 0.0
9626, 15.99970378426845, 37.37196849830077, 0.0
9627, 17.19872787811918, 38.59228397961579, 0.0
9628, 15.98644401932141, 38.61971302608912, 0.0
9629, 14.79673021254819, 36.15059856837154, 0.0
9630, 17.22919688588281, 36.09784937265331, 0.0
9631, 16.0129635492155, 36.12422397051242, 0.0
9632, 18.42822097973353, 37.31816485396833, 0.0
9633, 18.44543022255012, 36.07147477479421, 0.0
9634, 18.41101173691695, 38.56485493314246, 0.0
9635, 68.9199831397394, 177.6952412253382, 0.0
9636, 67.68990017600089, 176.4860993895662, 0.0
9637, 68.96061276046862, 175.2345301577499, 0.0
9638, 68.940297950104, 176.4648856915441, 0.0
9639, 67.65110205650733, 178.9432217501082, 0.0
9640, 68.89966832937479, 178.9255967591323, 0.0
9641, 66.42101909276882, 177.7340799143362, 0.0
9642, 66.40253578363986, 178.9608467410841, 0.0
9643, 66.45798571102671, 175.2805462608405, 0.0
9644, 66.43950240189777, 176.5073130875884, 0.0
9645, 95.05583769155012, 46.25581422301713, 0.0
9646, 93.83308306130813, 47.49855620690818, 0.0
9647, 92.59756270088408, 46.24155913108397, 0.0
9648, 93.82031733112606, 44.99881714719292, 0.0
9649, 93.8267001962171, 46.24868667705055, 0.0
9650, 95.06521588767097, 48.75664197243979, 0.0
9651, 92.61371596512734, 48.74020950109182, 0.0
9652, 93.83946592639916, 48.7484257367658, 0.0
9653, 91.3781956047033, 47.48321242526761, 0.0
9654, 91.38796600385552, 48.73199326541782, 0.0
9655, 91.35865480639883, 44.98565074496719, 0.0
9656, 91.36842520555106, 46.2344315851174, 0.0
9657, 23.64872218767425, 17.40794732130549, 0.0
9658, 22.42189242987504, 16.1778781545776, 0.0
9659, 23.67932747682613, 14.9323433022835, 0.0
9660, 23.66402483225019, 16.1701453117945, 0.0
9661, 22.39433044776656, 18.65629676185373, 0.0
9662, 23.6334195430983, 18.64574933081649, 0.0
9663, 21.16750068996735, 17.42622759512583, 0.0
9664, 21.15524135243482, 18.66684419289097, 0.0
9665, 21.19201936503241, 14.94499439959556, 0.0
9666, 21.17976002749988, 16.1856109973607, 0.0
9667, 19.56277049572342, 156.4710477133064, 0.0
9668, 18.37776393628911, 157.6759909507044, 0.0
9669, 17.14889776561188, 156.4081691175963, 0.0
9670, 18.35583413066765, 156.4396084154513, 0.0
9671, 19.61116743270971, 158.9430589914859, 0.0
9672, 17.18822005111144, 158.8816879804289, 0.0
9673, 18.39969374191058, 158.9123734859574, 0.0
9674, 14.76527266951318, 158.8203169693718, 0.0
9675, 15.95935388043421, 157.6138661473208, 0.0
9676, 15.97674636031231, 158.8510024749003, 0.0
9677, 14.73502503550034, 156.3452905218862, 0.0
9678, 15.94196140055611, 156.3767298197412, 0.0
9679, 85.46380671667157, 58.57588867568997, 0.0
9680, 86.6410039368288, 57.36868068360469, 0.0
9681, 87.85442623344382, 58.64061598113553, 0.0
9682, 86.65911647505769, 58.60825232841275, 0.0
9683, 85.421816613126, 56.10131260939221, 0.0
9684, 87.8239661840738, 56.15690546820107, 0.0
9685, 86.62289139859989, 56.12910903879664, 0.0
9686, 89.03738848068882, 57.42884076573191, 0.0
9687, 89.0250409695477, 56.18470189760551, 0.0
9688, 89.04973599182995, 58.67297963385832, 0.0
9689, 4.962695582050207, 33.73800233253246, 0.0
9690, 6.202771824224829, 32.48245004913254, 0.0
9691, 7.435376749105701, 33.72548232276874, 0.0
9692, 6.199036165577954, 33.7317423276506, 0.0
9693, 4.968760640572311, 31.23951447730099, 0.0
9694, 7.444254325171097, 31.22680106392797, 0.0
9695, 6.206507482871705, 31.23315777061448, 0.0
9696, 8.676859250051969, 32.46983333756418, 0.0
9697, 8.68200116747049, 31.22044435724147, 0.0
9698, 8.671717332633447, 33.71922231788689, 0.0
9699, 11.17413219673968, 27.45715461784675, 0.0
9700, 12.40112177526954, 28.69382962329477, 0.0
9701, 11.16650085998442, 28.7049800167254, 0.0
9702, 11.18939487025021, 24.96150382008944, 0.0
9703, 12.41907334604047, 26.19956784612797, 0.0
9704, 11.18176353349495, 26.20932921896809, 0.0
9705, 13.66670339260165, 24.94337009499969, 0.0
9706, 13.64606292457033, 27.43624285157599, 0.0
9707, 13.65638315858599, 26.18980647328784, 0.0
9708, 13.63574269055467, 28.68267922986415, 0.0
9709, 3.707146273530541, 154.9964164319305, 0.0
9710, 2.469563588737658, 153.7494299016046, 0.0
9711, 3.701544492682432, 152.5018732725561, 0.0
9712, 3.704345383106487, 153.7491448522433, 0.0
9713, 1.23571542451018, 154.9988054775233, 0.0
9714, 1.233848164227477, 152.5006244244085, 0.0
9715, 1.234781794368829, 153.7497149509661, 0.0
9716, 2.465829068172252, 151.2530677953614, 0.0
9717, 1.232914534086126, 151.2515338978527, 0.0
9718, 3.698743602258377, 151.2546016928696, 0.0
9719, 38.76841065841931, 195.0435475730754, 0.0
9720, 37.51987981252255, 193.8063899264482, 0.0
9721, 38.7746500575489, 192.574435019124, 0.0
9722, 38.77153035798411, 193.8089912960997, 0.0
9723, 36.26653301069561, 195.0392146003125, 0.0
9724, 36.26992552342639, 192.5683625132809, 0.0
9725, 36.268229267061, 193.8037885567967, 0.0
9726, 36.27331803615718, 190.0975104262492, 0.0
9727, 37.52469576845274, 191.3364076059567, 0.0
9728, 36.27162177979179, 191.3329364697651, 0.0
9729, 38.78088945667849, 190.1053224651726, 0.0
9730, 38.7777697571137, 191.3398787421483, 0.0
9731, 77.91889595512272, 40.95718992554135, 0.0
9732, 76.74417883268387, 42.15902750614489, 0.0
9733, 76.71140748326246, 40.91747651036231, 0.0
9734, 79.15445131167473, 42.24013342074281, 0.0
9735, 79.12638442698297, 40.99690334072039, 0.0
9736, 77.97973418923588, 43.44197100134635, 0.0
9737, 79.18251819636649, 43.48336350076524, 0.0
9738, 76.77695018210528, 43.40057850192746, 0.0
9739, 97.54737782530975, 141.2629584672716, 0.0
9740, 96.31925872595872, 142.5156833200806, 0.0
9741, 96.32106673796464, 141.2694377010683, 0.0
9742, 98.77308624198625, 142.5052277731497, 0.0
9743, 98.77368891265488, 141.2564792334746, 0.0
9744, 98.77188090064897, 145.0027248525014, 0.0
9745, 97.54496714263522, 143.7579526259594, 0.0
9746, 98.77248357131761, 143.7539763128256, 0.0
9747, 96.3156427019469, 145.0081745581057, 0.0
9748, 96.31745071395281, 143.7619289390932, 0.0
9749, 27.09540221631041, 166.6036777827454, 0.0
9750, 25.90247902216145, 167.7987410938913, 0.0
9751, 25.86720597089033, 166.5630144542847, 0.0
9752, 29.55179470715055, 166.6850044396667, 0.0
9753, 28.36544765744518, 167.8763438712161, 0.0
9754, 28.32359846173048, 166.644341111206, 0.0
9755, 29.64206924302354, 169.1452860800903, 0.0
9756, 27.17252446329622, 169.0714071823621, 0.0
9757, 28.40729685315988, 169.1083466312262, 0.0
9758, 25.93775207343256, 169.034467733498, 0.0
9759, 58.84363450653075, 182.7240266254001, 0.0
9760, 57.5978582621333, 181.517282018324, 0.0
9761, 58.85422513697296, 181.5034600135314, 0.0
9762, 57.57990021323424, 183.9557088371165, 0.0
9763, 58.83304387608853, 183.9445932372688, 0.0
9764, 56.33412396883679, 182.7489642300405, 0.0
9765, 56.32675655037994, 183.9668244369643, 0.0
9766, 56.34149138729363, 181.5311040231167, 0.0
9767, 67.57205790452971, 16.11437469879447, 0.0
9768, 66.33772380775278, 17.33162980824163, 0.0
9769, 66.32308837143196, 16.10219481624296, 0.0
9770, 70.06999697072521, 16.1387344638975, 0.0
9771, 68.83517140389672, 17.35889496643168, 0.0
9772, 68.82102743762746, 16.12655458134599, 0.0
9773, 70.09779343321219, 18.6063206271559, 0.0
9774, 68.86345933643524, 19.82357573660305, 0.0
9775, 67.60083730711978, 18.57615007587883, 0.0
9776, 68.84931537016598, 18.59123535151736, 0.0
9777, 66.36699468039441, 19.79049979223897, 0.0
9778, 66.35235924407358, 18.5610648002403, 0.0
9779, 71.66982915676799, 34.58059874814302, 0.0
9780, 72.93177694462476, 35.84973009273784, 0.0
9781, 71.75163228922523, 37.04017912444911, 0.0
9782, 70.48968450136846, 35.77104777985429, 0.0
9783, 71.71073072299662, 35.81038893629606, 0.0
9784, 74.11809463490226, 34.65499913403987, 0.0
9785, 74.18755169760354, 37.12314336431935, 0.0
9786, 74.15282316625292, 35.88907124917961, 0.0
9787, 73.00740704220401, 38.31359239603061, 0.0
9788, 74.22228022895418, 38.35721547945909, 0.0
9789, 70.57766066870369, 38.22634622917368, 0.0
9790, 71.79253385545385, 38.26996931260214, 0.0
9791, 56.24826915348825, 4.955385336221321, 0.0
9792, 57.5010418711901, 6.192338863836388, 0.0
9793, 56.24991479393366, 7.424199763987882, 0.0
9794, 56.24909197371096, 6.189792550104602, 0.0
9795, 58.75061387728253, 4.959669868264699, 0.0
9796, 58.75536966005596, 7.43010048687165, 0.0
9797, 58.75299176866925, 6.194885177568175, 0.0
9798, 57.50424258279951, 8.661961387023144, 0.0
9799, 58.75774755144268, 8.665315796175127, 0.0
9800, 56.25073761415635, 8.658606977871163, 0.0
9801, 90.02747397672047, 178.7647618632145, 0.0
9802, 91.27741074602764, 177.5134722246716, 0.0
9803, 92.51922392448841, 178.7595162323793, 0.0
9804, 91.26928715518125, 180.0108058709222, 0.0
9805, 91.27334895060443, 178.7621390477969, 0.0
9806, 90.0372107945569, 176.2681742293717, 0.0
9807, 91.28553433687401, 175.0161385784209, 0.0
9808, 92.52573428834475, 176.2614365737208, 0.0
9809, 91.28147254145082, 176.2648054015463, 0.0
9810, 93.7724446036718, 175.0086549103621, 0.0
9811, 95.01425778213259, 176.2546989180698, 0.0
9812, 93.76754746680552, 177.5074805814285, 0.0
9813, 93.76999603523865, 176.2580677458953, 0.0
9814, 95.01097387225639, 178.7542706015441, 0.0
9815, 93.76265032993928, 180.0063062524949, 0.0
9816, 93.7650988983724, 178.7568934169617, 0.0
9817, 27.43340671256449, 181.403326260489, 0.0
9818, 26.19659556668574, 182.6238754618276, 0.0
9819, 24.93270922733437, 181.3719090385246, 0.0
9820, 26.18305796994943, 181.3876176495068, 0.0
9821, 29.93410419779461, 181.4347434824535, 0.0
9822, 28.69884282216572, 182.6515524135253, 0.0
9823, 28.68375545517955, 181.4190348714713, 0.0
9824, 29.96582870201681, 183.8960382962948, 0.0
9825, 28.72901755613806, 185.1165874976334, 0.0
9826, 27.46203167628697, 183.8721016148639, 0.0
9827, 28.71393018915189, 183.8840699555794, 0.0
9828, 26.22367076015835, 185.0963910864692, 0.0
9829, 24.95823465055712, 183.8481649334329, 0.0
9830, 26.21013316342204, 183.8601332741484, 0.0
9831, 82.61659483359992, 28.64466773400184, 0.0
9832, 83.84057564862644, 27.41791727292842, 0.0
9833, 85.08600799520725, 28.67778088251184, 0.0
9834, 83.85130141440358, 28.66122430825684, 0.0
9835, 81.3681827635659, 27.38757072740996, 0.0
9836, 81.38188825279624, 28.62811115974684, 0.0
9837, 81.34077178510522, 24.9064898627362, 0.0
9838, 82.59216357859242, 26.16082026633654, 0.0
9839, 81.35447727433557, 26.14703029507308, 0.0
9840, 83.81912411707214, 24.93130320227159, 0.0
9841, 85.06753618710616, 26.18840020886347, 0.0
9842, 83.82984988284929, 26.17461023760001, 0.0
9843, 17.04616946835893, 148.9804440041683, 0.0
9844, 18.22285349757585, 147.7753989889061, 0.0
9845, 18.24181527874928, 149.0147690694008, 0.0
9846, 15.83425615752444, 147.7058989720945, 0.0
9847, 15.85052365796859, 148.9461189389359, 0.0
9848, 15.80172115663616, 145.2254590384116, 0.0
9849, 17.01094018674136, 146.5008539568322, 0.0
9850, 15.8179886570803, 146.465679005253, 0.0
9851, 18.18492993522899, 145.2966588279168, 0.0
9852, 18.20389171640242, 146.5360289084114, 0.0
9853, 83.96701721969328, 162.5924761987616, 0.0
9854, 82.76348969815783, 161.36374778436, 0.0
9855, 83.98236214061559, 161.3453372863816, 0.0
9856, 82.72956481714579, 163.8570097250205, 0.0
9857, 83.95167229877097, 163.8396151111417, 0.0
9858, 81.52603729561034, 162.6282813106189, 0.0
9859, 81.5074573355206, 163.8744043388994, 0.0
9860, 81.54461725570008, 161.3821582823385, 0.0
9861, 67.89934000279094, 53.92481219849716, 0.0
9862, 69.11997120673007, 55.22934174193657, 0.0
9863, 68.05797298061793, 56.35841511887477, 0.0
9864, 66.8373417766788, 55.05388557543536, 0.0
9865, 67.97865649170443, 55.14161365868596, 0.0
9866, 70.19336341432412, 54.09768595623522, 0.0
9867, 71.40260063678136, 55.40479790843778, 0.0
9868, 70.3292084291873, 56.53645369413913, 0.0
9869, 70.2612859217557, 55.31706982518717, 0.0
9870, 71.52705167016265, 57.84614805510485, 0.0
9871, 70.46505344405051, 58.97522143204304, 0.0
9872, 69.26721020307517, 57.66552707107733, 0.0
9873, 70.39713093661891, 57.75583756309108, 0.0
9874, 68.21660595844492, 58.79201803925238, 0.0
9875, 67.00736873598768, 57.48490608704982, 0.0
9876, 68.13728946953142, 57.57521657906357, 0.0
9877, 18.63674485132387, 22.41032939170314, 0.0
9878, 17.41131047219701, 21.17860999313729, 0.0
9879, 18.65062616832198, 21.16899090712544, 0.0
9880, 17.38673062149515, 23.66405132086174, 0.0
9881, 18.62286353432576, 23.65166787628084, 0.0
9882, 14.91446479583393, 23.68881821002353, 0.0
9883, 16.16129624236828, 22.43233192229589, 0.0
9884, 16.15059770866454, 23.67643476544264, 0.0
9885, 14.93267907994705, 21.197848165161, 0.0
9886, 16.17199477607203, 21.18822907914915, 0.0
9887, 19.94125111929218, 78.79940006465367, 0.0
9888, 20.48342743363018, 76.9353385465293, 0.0
9889, 21.8135737914505, 77.33601946980308, 0.0
9890, 21.2713974771125, 79.20008098792745, 0.0
9891, 20.87741245537134, 78.06770976722838, 0.0
9892, 19.26553924279423, 76.15079612312991, 0.0
9893, 20.91334558098383, 75.45513852853051, 0.0
9894, 20.08944241188903, 75.80296732583022, 0.0
9895, 22.24349193880414, 75.8558194518043, 0.0
9896, 21.73724875007862, 75.10730973123083, 0.0
9897, 23.25597831625517, 77.35283889295128, 0.0
9898, 22.74973512752965, 76.60432917237779, 0.0
9899, 72.80153085922689, 30.93330453783646, 0.0
9900, 71.60436834986591, 32.12863245456409, 0.0
9901, 70.34174503360285, 30.8719940777128, 0.0
9902, 71.57163794641487, 30.90264930777463, 0.0
9903, 74.06031405966002, 32.19430622327881, 0.0
9904, 74.03142377203889, 30.96395976789829, 0.0
9905, 72.86315155029905, 33.38963414000645, 0.0
9906, 74.08920434728114, 33.42465267865934, 0.0
9907, 70.41104595633485, 33.31959706270067, 0.0
9908, 71.63709875331695, 33.35461560135356, 0.0
9909, 22.37806113187854, 176.3843861832071, 0.0
9910, 21.15289690048598, 177.6059554451822, 0.0
9911, 19.89628274410261, 176.3438187693623, 0.0
9912, 21.13717193799057, 176.3641024762847, 0.0
9913, 23.63754909016909, 177.6428047673217, 0.0
9914, 23.6189503257665, 176.4046698901295, 0.0
9915, 23.67474661897427, 180.119074521706, 0.0
9916, 22.41238485877653, 178.8643740292968, 0.0
9917, 23.65614785457168, 178.8809396445138, 0.0
9918, 21.1843468254768, 180.0896613829772, 0.0
9919, 19.92485886718625, 178.8312427988626, 0.0
9920, 21.16862186298139, 178.8478084140797, 0.0
9921, 17.41580200198668, 176.3172157989766, 0.0
9922, 16.18582254765104, 177.550917174783, 0.0
9923, 14.93532125987074, 176.2906128285908, 0.0
9924, 16.17556163092871, 176.3039143137837, 0.0
9925, 18.66898805297997, 177.5753262476693, 0.0
9926, 18.65604237304465, 176.3305172841694, 0.0
9927, 18.69487941285061, 180.064944174669, 0.0
9928, 17.43900859864432, 178.8090276234757, 0.0
9929, 18.68193373291529, 178.8201352111691, 0.0
9930, 16.20634438109568, 180.0449228967815, 0.0
9931, 14.95315833010239, 178.7868124480888, 0.0
9932, 16.19608346437336, 178.7979200357822, 0.0
9933, 2.454886398271682, 53.73566692066878, 0.0
9934, 3.684816638548332, 52.47693268098049, 0.0
9935, 3.682329597407524, 53.72850038081204, 0.0
9936, 1.228272212849444, 52.49231089390927, 0.0
9937, 1.227443199135841, 53.74283346052556, 0.0
9938, 1.229930240276649, 49.99126576067589, 0.0
9939, 2.458202453126093, 51.23357665422068, 0.0
9940, 1.229101226563047, 51.24178832729196, 0.0
9941, 3.689790720829947, 49.97379728131708, 0.0
9942, 3.68730367968914, 51.22536498114879, 0.0
9943, 67.63632532889838, 21.0316054348997, 0.0
9944, 66.40935149595967, 22.23613419786269, 0.0
9945, 66.38817308817704, 21.01331699505083, 0.0
9946, 68.90549580280421, 22.2762120128941, 0.0
9947, 68.88447756961973, 21.04989387474857, 0.0
9948, 67.6785219698655, 23.48074077585708, 0.0
9949, 68.92651403598869, 23.50253015103962, 0.0
9950, 66.43052990374231, 23.45895140067455, 0.0
9951, 73.76888793674837, 9.964467858780921, 0.0
9952, 72.51675703721845, 8.715466809757192, 0.0
9953, 73.76213920404021, 7.475177263143015, 0.0
9954, 75.01427010357014, 8.724178312166742, 0.0
9955, 73.76551357039429, 8.719822560961969, 0.0
9956, 71.27211616937747, 9.95402658490623, 0.0
9957, 70.01924397086677, 8.706755307347642, 0.0
9958, 71.26388483870775, 7.468195532198605, 0.0
9959, 71.26800050404262, 8.711111058552419, 0.0
9960, 70.01027134121625, 6.222654026105157, 0.0
9961, 71.25565350803802, 4.98236447949098, 0.0
9962, 72.50926700552951, 6.227905985584428, 0.0
9963, 71.25976917337289, 6.225280005844792, 0.0
9964, 73.75539047133205, 4.985886667505112, 0.0
9965, 75.00826266984275, 6.2331579450637, 0.0
9966, 73.75876483768613, 6.230531965324065, 0.0
9967, 22.46231028568539, 183.8270485794516, 0.0
9968, 23.69843051840559, 182.5980960115302, 0.0
9969, 23.71027246812126, 183.8376067564423, 0.0
9970, 19.96638592081366, 183.8059322254704, 0.0
9971, 21.20434767732528, 182.5742140626331, 0.0
9972, 21.21434810324953, 183.816490402461, 0.0
9973, 19.9482265927566, 181.3186139508986, 0.0
9974, 22.44046791004548, 181.3452614947116, 0.0
9975, 21.19434725140104, 181.3319377228051, 0.0
9976, 23.68658856868993, 181.358585266618, 0.0
9977, 30.99042315475722, 22.24091457043006, 0.0
9978, 32.19977051307794, 23.44042658521337, 0.0
9979, 30.92729276820983, 24.68555092644024, 0.0
9980, 30.95885796148353, 23.46323274843515, 0.0
9981, 32.26499323573366, 20.99990331145619, 0.0
9982, 31.02198834803091, 21.01859639242497, 0.0
9983, 33.47434059405437, 22.1994153262395, 0.0
9984, 33.5079981234364, 20.98121023048742, 0.0
9985, 33.40702553529031, 24.63582551774368, 0.0
9986, 33.44068306467234, 23.41762042199159, 0.0
9987, 62.701405509269, 25.82596072412891, 0.0
9988, 61.46151994870742, 27.01262597267576, 0.0
9989, 61.43547675248541, 25.80168336697614, 0.0
9990, 63.99565979155015, 27.06474340171318, 0.0
9991, 63.96733426605259, 25.85023808128169, 0.0
9992, 64.05231084254527, 29.49375404257616, 0.0
9993, 62.75577423098857, 28.25140865026003, 0.0
9994, 64.0239853170477, 28.27924872214467, 0.0
9995, 61.51360634115144, 29.434511184075, 0.0
9996, 61.48756314492942, 28.22356857837538, 0.0
9997, 87.56389525502603, 28.69936784020439, 0.0
9998, 88.79752988424248, 27.4622620531979, 0.0
9999, 90.04178251484481, 28.72095479789694, 0.0
10000, 88.80283888493541, 28.71016131905067, 0.0
10001, 86.31702468885196, 27.4428143815244, 0.0
10002, 86.32495162511664, 28.68857436135811, 0.0
10003, 86.30117081632261, 24.95129442185697, 0.0
10004, 87.55065931806841, 26.2057085945179, 0.0
10005, 86.30909775258728, 26.19705440169069, 0.0
10006, 88.78691188285661, 24.96646352149235, 0.0
10007, 90.03378244903068, 26.22301698017234, 0.0
10008, 88.79222088354955, 26.21436278734512, 0.0
10009, 24.93370795116012, 13.68509584430169, 0.0
10010, 26.19069490228195, 12.43827661538748, 0.0
10011, 27.42402571440748, 13.67064342073292, 0.0
10012, 26.1788668327838, 13.6778696325173, 0.0
10013, 24.95516078803436, 11.20325202565012, 0.0
10014, 26.21435104127827, 9.959090581127832, 0.0
10015, 27.44988515552586, 11.19411517086519, 0.0
10016, 26.20252297178011, 11.19868359825766, 0.0
10017, 28.71127871089183, 9.952611510734819, 0.0
10018, 28.68321596765139, 12.42648197621063, 0.0
10019, 28.69724733927161, 11.18954674347273, 0.0
10020, 28.66918459603116, 13.66341720894854, 0.0
10021, 33.72160253829017, 7.453709132136661, 0.0
10022, 32.48037012211216, 6.21724841025978, 0.0
10023, 33.73833059234889, 4.975191179842886, 0.0
10024, 33.72996656531953, 6.214450155989773, 0.0
10025, 32.46445482162883, 8.697710835508634, 0.0
10026, 33.71323851126081, 8.692968108283548, 0.0
10027, 29.96688744236489, 8.707196289958805, 0.0
10028, 31.22322240545083, 7.461250113631753, 0.0
10029, 31.21567113199686, 8.70245356273372, 0.0
10030, 29.98117723569745, 6.22284491879979, 0.0
10031, 31.23832495235878, 4.978843215427817, 0.0
10032, 31.23077367890481, 6.220046664529785, 0.0
10033, 9.876579167762236, 158.7536874878834, 0.0
10034, 11.09000345113347, 157.5274719253148, 0.0
10035, 12.32092591863771, 158.7870022286276, 0.0
10036, 11.09875254319997, 158.7703448582555, 0.0
10037, 9.863330800255856, 156.2643684825367, 0.0
10038, 12.2991779178781, 156.3048295022114, 0.0
10039, 11.08125435906698, 156.284598992374, 0.0
10040, 13.53010038538233, 157.5643598055243, 0.0
10041, 13.51710147668922, 156.3250600120488, 0.0
10042, 13.54309929407544, 158.8036595989997, 0.0
10043, 76.38093216489531, 177.6081090476777, 0.0
10044, 77.60483006751134, 178.8369995739686, 0.0
10045, 76.34689375262624, 180.0870530858551, 0.0
10046, 76.36391295876078, 178.8475810667664, 0.0
10047, 77.63662235174954, 176.3557173632315, 0.0
10048, 76.39795137102985, 176.368637028589, 0.0
10049, 80.11396431318889, 176.3298780325164, 0.0
10050, 78.86052025436555, 177.5846078895223, 0.0
10051, 78.8752933324692, 176.3427976978739, 0.0
10052, 80.08666428501246, 178.8158365883729, 0.0
10053, 78.83097409815826, 180.0682282728191, 0.0
10054, 78.84574717626191, 178.8264180811707, 0.0
10055, 72.58556012541217, 18.63131920646774, 0.0
10056, 73.81809173110489, 17.40636439358408, 0.0
10057, 73.82944347151218, 18.64381849612367, 0.0
10058, 71.32862737834743, 17.38380649487916, 0.0
10059, 71.34167677931218, 18.61881991681182, 0.0
10060, 71.30252857641793, 14.91377965101384, 0.0
10061, 72.56115898404015, 16.15885168199549, 0.0
10062, 71.31557797738267, 16.1487930729465, 0.0
10063, 73.79538825029033, 14.9314561885049, 0.0
10064, 73.80673999069762, 16.16891029104449, 0.0
10065, 92.54461923344844, 33.730787306621, 0.0
10066, 93.78131520565447, 32.48681141566054, 0.0
10067, 95.02441995691875, 33.74389730556045, 0.0
10068, 93.7845195951836, 33.73734230609072, 0.0
10069, 91.29942052804219, 32.47455454346958, 0.0
10070, 91.30471887171329, 33.72423230715127, 0.0
10071, 91.28882384069999, 29.97519901610622, 0.0
10072, 92.53611650024821, 31.23057865250913, 0.0
10073, 91.2941221843711, 31.22487677978791, 0.0
10074, 93.7749064265962, 29.98574963480018, 0.0
10075, 95.02010513200247, 31.24198239795159, 0.0
10076, 93.77811081612535, 31.23628052523036, 0.0
10077, 22.49796085571678, 191.2805045274438, 0.0
10078, 21.24871626197267, 192.521512127245, 0.0
10079, 19.99668143761529, 191.2719343988853, 0.0
10080, 21.24732114666603, 191.2762194631646, 0.0
10081, 24.99924027381826, 191.2890746560024, 0.0
10082, 23.75011197352705, 192.528394870173, 0.0
10083, 23.74860056476751, 191.2847895917231, 0.0
10084, 25.00237938479024, 193.7745978272716, 0.0
10085, 23.75313479104613, 195.0156054270728, 0.0
10086, 22.50086737978295, 193.7694024699742, 0.0
10087, 23.7516233822866, 193.772000148623, 0.0
10088, 21.25150649258593, 195.012097455406, 0.0
10089, 19.99935537477566, 193.7642071126768, 0.0
10090, 21.2501113772793, 193.7668047913255, 0.0
10091, 9.954768752890226, 23.72150530037234, 0.0
10092, 11.19999065700209, 22.46516323548083, 0.0
10093, 12.43461677436208, 23.70516175519793, 0.0
10094, 11.19469276362615, 23.71333352778514, 0.0
10095, 9.962825040521688, 21.22337453584837, 0.0
10096, 11.21058644375397, 19.96882265087222, 0.0
10097, 12.44775206023437, 21.21061135050468, 0.0
10098, 11.20528855037803, 21.21699294317653, 0.0
10099, 13.69805296258707, 19.95784964544389, 0.0
10100, 13.68237817759436, 22.45060987022179, 0.0
10101, 13.69021557009071, 21.20422975783284, 0.0
10102, 13.674540785098, 23.69698998261074, 0.0
10103, 4.949294487686302, 158.7405397556892, 0.0
10104, 6.177851414355593, 157.4963323514306, 0.0
10105, 7.412936827724269, 158.7471136217863, 0.0
10106, 6.181115657705285, 158.7438266887378, 0.0
10107, 4.945005961255916, 156.2436611913191, 0.0
10108, 7.404168380755885, 156.2540148369279, 0.0
10109, 6.174587171005901, 156.2488380141235, 0.0
10110, 8.63925379412456, 157.5047961072835, 0.0
10111, 8.63374959050587, 156.2591916597323, 0.0
10112, 8.644757997743252, 158.7504005548348, 0.0
10113, 97.54241376805213, 146.2549188056209, 0.0
10114, 96.31159860220949, 147.5065818590507, 0.0
10115, 96.31362065207819, 146.2573782085782, 0.0
10116, 98.77053286740316, 147.5021939528256, 0.0
10117, 98.77120688402606, 146.2524594026637, 0.0
10118, 98.76918483415736, 150.0016630531496, 0.0
10119, 97.53971770156052, 148.7538570062554, 0.0
10120, 98.76985885078025, 148.751928502987, 0.0
10121, 96.30755450247207, 150.0049891599956, 0.0
10122, 96.30957655234077, 148.7557855095232, 0.0
10123, 44.99324356488245, 3.716572942863896, 0.0
10124, 46.24576749053286, 2.47743097496473, 0.0
10125, 47.49405890688629, 3.715719982030294, 0.0
10126, 46.24365123588436, 3.716146462447095, 0.0
10127, 44.99774785484873, 1.238857647621299, 0.0
10128, 47.49801963551394, 1.238573327343431, 0.0
10129, 46.24788374518146, 1.238715487482365, 0.0
10130, 49.99829141617917, 1.238289007065563, 0.0
10131, 48.74631105186739, 2.476862334408994, 0.0
10132, 48.74815552584623, 1.238431167204497, 0.0
10133, 49.99487424889014, 3.714867021196691, 0.0
10134, 48.74446657788822, 3.715293501613492, 0.0
10135, 61.7226519584235, 34.27278507817879, 0.0
10136, 63.05473403312712, 35.52126549099792, 0.0
10137, 61.88705046153588, 36.69104823586761, 0.0
10138, 60.55496838683226, 35.44256782304847, 0.0
10139, 61.80485120997969, 35.48191665702319, 0.0
10140, 64.235049977502, 34.34632107435509, 0.0
10141, 65.55449967942198, 35.59996315894736, 0.0
10142, 64.37418373504708, 36.77490757559019, 0.0
10143, 64.30461685627455, 35.56061432497264, 0.0
10144, 65.68100106418339, 38.03371133195559, 0.0
10145, 63.20650016345584, 37.94469032045988, 0.0
10146, 64.44375061381962, 37.98920082620774, 0.0
10147, 60.73199926272829, 37.85566930896416, 0.0
10148, 61.96924971309207, 37.90017981471202, 0.0
10149, 65.2294795586158, 174.0787543251065, 0.0
10150, 66.50489283479317, 172.8274536699743, 0.0
10151, 67.73339898720408, 174.0292456057084, 0.0
10152, 66.48143927290994, 174.0539999654074, 0.0
10153, 65.27509430323587, 171.6291543505479, 0.0
10154, 67.78159849011692, 171.5726603985347, 0.0
10155, 66.5283463966764, 171.6009073745413, 0.0
10156, 69.01010464252784, 172.7744523342687, 0.0
10157, 69.03485058355744, 171.5444134225281, 0.0
10158, 68.98535870149823, 174.0044912460093, 0.0
10159, 32.29647606517571, 174.1157009232004, 0.0
10160, 33.51183843490183, 172.9212643807146, 0.0
10161, 33.55010649405152, 174.1431803720224, 0.0
10162, 31.0074210173691, 172.8619572272194, 0.0
10163, 31.0428456362999, 174.0882214743785, 0.0
10164, 30.9365717795075, 170.4094287329011, 0.0
10165, 32.22278338709522, 171.6675206847335, 0.0
10166, 30.9719963984383, 171.6356929800602, 0.0
10167, 33.43530231660245, 170.477432398099, 0.0
10168, 33.47357037575215, 171.6993483894068, 0.0
10169, 48.80558559526155, 182.7880492568304, 0.0
10170, 47.54836195465038, 181.57450144326, 0.0
10171, 48.80450926605625, 180.360530938236, 0.0
10172, 48.8050474306589, 181.5742900975332, 0.0
10173, 47.55140891386192, 184.0028922623382, 0.0
10174, 48.80612375986418, 184.0018084161275, 0.0
10175, 45.04197922185737, 184.0050599547595, 0.0
10176, 46.29418527325076, 182.7893444487678, 0.0
10177, 46.29669406785965, 184.0039761085488, 0.0
10178, 45.03499100263335, 181.5749241347137, 0.0
10179, 46.28916768403297, 180.3600811292058, 0.0
10180, 46.29167647864187, 181.5747127889869, 0.0
10181, 80.51401567874407, 151.416651283378, 0.0
10182, 79.29570938241092, 152.7061063005253, 0.0
10183, 78.12874769733833, 151.4978375270824, 0.0
10184, 79.3213816880412, 151.4572444052302, 0.0
10185, 80.46812131227715, 153.9185748265929, 0.0
10186, 78.07195284128414, 153.991361565048, 0.0
10187, 79.27003707678064, 153.9549681958205, 0.0
10188, 76.90499115621155, 152.7830927916051, 0.0
10189, 76.87386860578765, 154.0277549342756, 0.0
10190, 76.93611370663547, 151.5384306489346, 0.0
10191, 86.27908047744492, 182.5218928910879, 0.0
10192, 87.52103951603175, 183.7664422004198, 0.0
10193, 86.26986410337486, 185.0174564312626, 0.0
10194, 86.27447229040988, 183.7696746611753, 0.0
10195, 86.28829685151499, 180.0263293509131, 0.0
10196, 87.52905745441774, 181.2700839294648, 0.0
10197, 86.28368866447997, 181.2741111210005, 0.0
10198, 88.77783599570648, 180.0174802370616, 0.0
10199, 90.01979503429331, 181.2620295463935, 0.0
10200, 88.77101649300457, 182.5146332387967, 0.0
10201, 88.77442624435551, 181.2660567379291, 0.0
10202, 90.01417396727547, 183.7599772789088, 0.0
10203, 88.76419699030265, 185.0117862405318, 0.0
10204, 88.76760674165362, 183.7632097396643, 0.0
10205, 81.34034070168477, 177.5641027119575, 0.0
10206, 82.56931893972032, 178.8000665002701, 0.0
10207, 81.32799161236639, 178.8079515443215, 0.0
10208, 82.59141526881743, 176.3106297266706, 0.0
10209, 81.35268979100316, 176.3202538795935, 0.0
10210, 85.068866224446, 176.2913814208246, 0.0
10211, 83.82039350685298, 177.5465935149832, 0.0
10212, 83.83014074663171, 176.3010055737476, 0.0
10213, 85.05197359442815, 178.7842964121674, 0.0
10214, 83.81064626707422, 178.7921814562188, 0.0
10215, 50.01228291347347, 196.2829384833822, 0.0
10216, 48.75852104500428, 197.5221279361862, 0.0
10217, 47.51328022128125, 196.2834453251764, 0.0
10218, 48.76278156737736, 196.2831919042792, 0.0
10219, 50.00409430466324, 198.7609794944607, 0.0
10220, 47.50442674059916, 198.7611484417255, 0.0
10221, 48.75426052263123, 198.7610639680931, 0.0
10222, 45.0047591765351, 198.7613173889902, 0.0
10223, 46.25918591687614, 197.5224658307156, 0.0
10224, 46.25459295856743, 198.7612329153578, 0.0
10225, 45.01427752908906, 196.2839521669706, 0.0
10226, 46.26377887518515, 196.2836987460735, 0.0
10227, 30.84886304212874, 27.12139125341211, 0.0
10228, 32.04674048083143, 28.30733900359007, 0.0
10229, 30.77043331604765, 29.55723158038398, 0.0
10230, 30.8096481790882, 28.33931141689804, 0.0
10231, 32.1270195947772, 25.87623848259133, 0.0
10232, 30.88807790516929, 25.90347108992618, 0.0
10233, 34.604902973993, 25.82177326792164, 0.0
10234, 33.32489703347989, 27.06218623276929, 0.0
10235, 33.3659612843851, 25.84900587525648, 0.0
10236, 34.52092508431791, 28.24339417697413, 0.0
10237, 33.24276853166946, 29.48854694779491, 0.0
10238, 33.28383278257467, 28.2753665902821, 0.0
10239, 26.83508711024812, 159.1942955924487, 0.0
10240, 27.98872342487624, 158.0106656757698, 0.0
10241, 29.24030036128207, 159.2939422042741, 0.0
10242, 28.0376937357651, 159.2441188983614, 0.0
10243, 24.42987385921418, 159.0946489806233, 0.0
10244, 25.59186603537147, 157.9102624397706, 0.0
10245, 25.63248048473115, 159.144472286536, 0.0
10246, 24.35700082202401, 156.6254726629188, 0.0
10247, 26.74550234999959, 156.7266325230917, 0.0
10248, 25.55125158601179, 156.6760525930053, 0.0
10249, 29.13400387797517, 156.8277923832646, 0.0
10250, 27.93975311398738, 156.7772124531782, 0.0
10251, 82.57119511536922, 23.6762842008515, 0.0
10252, 83.80383018775929, 22.44382459090574, 0.0
10253, 85.05175918946222, 23.69884359232584, 0.0
10254, 83.81147715241573, 23.68756389658867, 0.0
10255, 81.32105437154024, 22.42351914749246, 0.0
10256, 81.33091307832274, 23.66500450511433, 0.0
10257, 81.30133695797527, 19.94054843224872, 0.0
10258, 82.55368944393031, 21.1910595375467, 0.0
10259, 81.31119566475776, 21.18203378987059, 0.0
10260, 83.78853625844646, 19.95634597953989, 0.0
10261, 85.03867700227543, 21.20911103289893, 0.0
10262, 83.79618322310287, 21.20008528522281, 0.0
10263, 68.12933086644354, 38.13002878056464, 0.0
10264, 69.30469203172773, 36.95323206474836, 0.0
10265, 69.35349576757362, 38.17818750486916, 0.0
10266, 66.84673092511103, 36.86230218521711, 0.0
10267, 66.90516596531346, 38.08187005626012, 0.0
10268, 66.72986084470617, 34.42316644313108, 0.0
10269, 68.02209209039522, 35.68550546940083, 0.0
10270, 66.7882958849086, 35.6427343141741, 0.0
10271, 69.20708456003595, 34.50332118450676, 0.0
10272, 69.25588829588183, 35.72827662462756, 0.0
10273, 17.45791616592634, 181.3004456687237, 0.0
10274, 16.21917752392673, 182.5378001584909, 0.0
10275, 14.96760573909607, 181.2822773865487, 0.0
10276, 16.21276095251121, 181.2913615276362, 0.0
10277, 18.71126334583233, 182.5541154449533, 0.0
10278, 18.70307137934147, 181.3095298098112, 0.0
10279, 18.72764727881405, 185.0432867152376, 0.0
10280, 17.47252470383272, 183.7914699347206, 0.0
10281, 18.71945531232319, 183.7987010800955, 0.0
10282, 16.23201066675777, 185.0306774202004, 0.0
10283, 14.97866348685178, 183.7770076439708, 0.0
10284, 16.22559409534225, 183.7842387893457, 0.0
10285, 16.94885133173919, 86.60120690731986, 0.0
10286, 15.76083132085956, 87.73836351882794, 0.0
10287, 15.75972901525725, 86.54429385012853, 0.0
10288, 19.32709596470307, 86.71503302170248, 0.0
10289, 18.13661649964402, 87.81431964392118, 0.0
10290, 18.13797364822113, 86.65811996451117, 0.0
10291, 19.32192221336943, 88.98956239123311, 0.0
10292, 16.94859648876439, 88.95147625542926, 0.0
10293, 18.13525935106691, 88.97051932333117, 0.0
10294, 15.76193362646187, 88.93243318752732, 0.0
10295, 2.462261279517067, 48.73347950911491, 0.0
10296, 3.696993117721254, 47.47664124568043, 0.0
10297, 3.693391919275601, 48.72521926349875, 0.0
10298, 1.232331039240418, 47.49221374878623, 0.0
10299, 1.231130639758534, 48.74173975473115, 0.0
10300, 1.234731838204187, 44.99316173689417, 0.0
10301, 2.467062877444604, 46.23537548535095, 0.0
10302, 1.233531438722302, 46.24268774284005, 0.0
10303, 3.70419551461256, 44.97948521004297, 0.0
10304, 3.700594316166907, 46.2280632278617, 0.0
10305, 3.70818080976328, 42.48311765583435, 0.0
10306, 2.473448971559093, 41.23995591925106, 0.0
10307, 3.712166104914, 39.98675010162417, 0.0
10308, 3.710173457338639, 41.23493387872925, 0.0
10309, 2.47079210812528, 43.73753428872993, 0.0
10310, 3.706188162187919, 43.73130143293865, 0.0
10311, 1.236060269921093, 42.49437255214821, 0.0
10312, 1.23539605406264, 43.74376714452055, 0.0
10313, 1.237388701638, 39.99558336739753, 0.0
10314, 1.236724485779547, 41.24497795977267, 0.0
10315, 88.78936176658829, 177.5218107638439, 0.0
10316, 87.55303850950145, 176.2797778250982, 0.0
10317, 88.79512465202917, 176.273976027235, 0.0
10318, 87.53972378557431, 178.774529137691, 0.0
10319, 88.78359888114738, 178.7696455004527, 0.0
10320, 86.30340052848749, 177.5324961989453, 0.0
10321, 86.29584869000124, 178.7794127749292, 0.0
10322, 86.31095236697372, 176.2855796229614, 0.0
10323, 78.81103710928178, 182.5552317729772, 0.0
10324, 77.57774602252553, 181.3200078790885, 0.0
10325, 78.82100560372001, 181.3117300228981, 0.0
10326, 78.79110012040532, 185.0422352731352, 0.0
10327, 77.55537021679211, 183.8047422785912, 0.0
10328, 78.80106861484354, 183.7987335230562, 0.0
10329, 76.29726450744548, 185.0519836835499, 0.0
10330, 76.32207913003586, 182.5695183847025, 0.0
10331, 76.30967181874067, 183.8107510341262, 0.0
10332, 76.33448644133105, 181.3282857352788, 0.0
10333, 11.11186930951139, 37.44227791047658, 0.0
10334, 12.32703487580002, 38.67553145558355, 0.0
10335, 11.10347223343822, 38.68972614709409, 0.0
10336, 12.34575432790578, 36.18008597202989, 0.0
10337, 11.12026638558457, 36.19482967385907, 0.0
10338, 13.56091989419441, 37.41333951713686, 0.0
10339, 13.57124227022698, 36.16534227020071, 0.0
10340, 13.55059751816183, 38.66133676407301, 0.0
10341, 46.15259930822048, 17.21486881765968, 0.0
10342, 47.40476613157005, 18.42653964979959, 0.0
10343, 46.1221706619624, 19.64379425579503, 0.0
10344, 46.13738498509144, 18.42933153672736, 0.0
10345, 47.42981516114766, 15.99766791425661, 0.0
10346, 46.16781363134952, 16.00040609859202, 0.0
10347, 48.68198198449723, 17.20933874639651, 0.0
10348, 48.6918166909458, 15.99492972992121, 0.0
10349, 48.6623125716001, 19.63815677934712, 0.0
10350, 48.67214727804866, 18.42374776287182, 0.0
10351, 23.69866745760577, 12.44861289317454, 0.0
10352, 22.46151410795683, 11.21024335159001, 0.0
10353, 23.71800743838541, 9.964882484065583, 0.0
10354, 23.70833744799559, 11.20674768862006, 0.0
10355, 22.44428698327179, 13.69586035115636, 0.0
10356, 23.68899746721595, 13.69047809772902, 0.0
10357, 19.95486601538347, 13.70662485801103, 0.0
10358, 21.20713363362285, 12.45749080957182, 0.0
10359, 21.19957649932763, 13.70124260458369, 0.0
10360, 19.96786742787929, 11.21723467752989, 0.0
10361, 21.22224790221328, 9.969987219548077, 0.0
10362, 21.21469076791806, 11.21373901455995, 0.0
10363, 3.713579063176122, 159.9917342784768, 0.0
10364, 2.474647243843151, 158.7452698779908, 0.0
10365, 3.710362668353332, 157.4940753552033, 0.0
10366, 3.711970865764727, 158.74290481684, 0.0
10367, 1.237859687725374, 159.9972447596817, 0.0
10368, 1.236787556117777, 157.4980251186016, 0.0
10369, 1.237323621921576, 158.7476349391416, 0.0
10370, 2.472502980627958, 156.2468305958147, 0.0
10371, 1.236251490313979, 156.2484152980634, 0.0
10372, 3.708754470941936, 156.2452458935668, 0.0
10373, 12.45208708488798, 176.2753517526647, 0.0
10374, 11.21563100015624, 177.5179257620331, 0.0
10375, 9.968852909905223, 176.2600906767387, 0.0
10376, 11.2104699973966, 176.2677212147017, 0.0
10377, 13.70137019670979, 177.5317836795709, 0.0
10378, 13.69370417237936, 176.2829822906278, 0.0
10379, 13.71670224537065, 180.0293864574572, 0.0
10380, 12.46491411197805, 178.7743576889393, 0.0
10381, 13.70903622104022, 178.7805850685141, 0.0
10382, 11.22595300567551, 180.0183348566961, 0.0
10383, 9.976669893853696, 178.7619029297899, 0.0
10384, 11.22079200291587, 178.7681303093646, 0.0
10385, 72.52761614313572, 11.20008989632252, 0.0
10386, 71.28732237289769, 12.43390311796003, 0.0
10387, 71.27971927113758, 11.19396485143313, 0.0
10388, 75.023409887132, 11.21233998610131, 0.0
10389, 73.78213809351934, 12.44796202364291, 0.0
10390, 73.77551301513387, 11.20621494121191, 0.0
10391, 75.03568202052834, 13.69764296686739, 0.0
10392, 72.54184432328131, 13.68177524528042, 0.0
10393, 73.78876317190483, 13.68970910607391, 0.0
10394, 71.2949254746578, 13.67384138448694, 0.0
10395, 97.53586849989989, 151.2536683994105, 0.0
10396, 96.3000509972276, 152.5060160385025, 0.0
10397, 96.30380274984984, 151.255502599249, 0.0
10398, 98.76668366574253, 152.5020053459945, 0.0
10399, 98.76793424994995, 151.2518341995732, 0.0
10400, 98.76418249732771, 155.002347638839, 0.0
10401, 97.53086616307024, 153.7543529850863, 0.0
10402, 98.76543308153512, 153.7521764924163, 0.0
10403, 96.29254749198313, 155.0070429170091, 0.0
10404, 96.29629924460536, 153.7565294777558, 0.0
10405, 67.8529023001474, 30.80514897484684, 0.0
10406, 66.64894090384851, 31.98887309665293, 0.0
10407, 65.36405956669196, 30.73830387198087, 0.0
10408, 66.60848093341968, 30.77172642341385, 0.0
10409, 69.13391063126207, 32.0601547456888, 0.0
10410, 69.09732366687513, 30.83857152627982, 0.0
10411, 67.92994923496317, 33.24387886749489, 0.0
10412, 69.17049759564901, 33.28173796509778, 0.0
10413, 65.4488525135915, 33.16816067228912, 0.0
10414, 66.68940087427734, 33.206019769892, 0.0
10415, 53.82204343170933, 173.0659022374985, 0.0
10416, 52.53684105036278, 171.8613884773683, 0.0
10417, 53.80952373658298, 170.6311896453237, 0.0
10418, 53.81578358414615, 171.8485459414111, 0.0
10419, 53.83456312683566, 175.5006148296733, 0.0
10420, 52.55853506999235, 174.295283306254, 0.0
10421, 53.82830327927249, 174.2832585335859, 0.0
10422, 51.30420103277858, 175.5238466117203, 0.0
10423, 51.2733326886458, 173.0907695461238, 0.0
10424, 51.28876686071219, 174.3073080789221, 0.0
10425, 51.24246434451302, 170.6576924805273, 0.0
10426, 51.25789851657942, 171.8742310133255, 0.0
10427, 88.90605701054011, 157.5415745746701, 0.0
10428, 87.69511025082076, 156.301164417592, 0.0
10429, 88.91493346093065, 156.2899723084792, 0.0
10430, 87.67427457336915, 158.8045743943257, 0.0
10431, 88.89718056014956, 158.7931768408611, 0.0
10432, 86.46332781364978, 157.5641642372476, 0.0
10433, 86.45136858658873, 158.8159719477903, 0.0
10434, 86.47528704071084, 156.3123565267049, 0.0
10435, 28.742547989557, 187.5895345427955, 0.0
10436, 27.4830770823015, 186.3441399895621, 0.0
10437, 28.73578277284753, 186.3530610202145, 0.0
10438, 28.75607842297595, 190.0624815879576, 0.0
10439, 27.49654293060809, 188.8194413845836, 0.0
10440, 28.74931320626648, 188.8260080653766, 0.0
10441, 26.25047328654683, 190.051702576231, 0.0
10442, 26.23707202335259, 187.5740468313501, 0.0
10443, 26.24377265494971, 188.8128747037906, 0.0
10444, 26.23037139175547, 186.3352189589096, 0.0
10445, 96.28052765895617, 39.99797370571419, 0.0
10446, 97.5216574036643, 41.24966189632783, 0.0
10447, 96.28444455203672, 42.50101198344721, 0.0
10448, 95.0433148073286, 41.24932379283358, 0.0
10449, 96.28248610549645, 41.24949284458071, 0.0
10450, 98.76017588631873, 39.99932456845691, 0.0
10451, 98.76148151734557, 42.500337327693, 0.0
10452, 98.76082870183215, 41.24983094807496, 0.0
10453, 98.76278714837242, 45.00135008692818, 0.0
10454, 97.524268665718, 43.75168741481208, 0.0
10455, 98.76213433285899, 43.75084370731044, 0.0
10456, 96.28836144511726, 45.00405026117993, 0.0
10457, 95.048537331436, 43.75337482981506, 0.0
10458, 96.28640299857699, 43.75253112231357, 0.0
10459, 96.29539509220791, 47.50467107324371, 0.0
10460, 97.53260794383549, 48.75332098611135, 0.0
10461, 96.29891191575325, 48.75498147927559, 0.0
10462, 97.52791884577506, 46.25290711140651, 0.0
10463, 96.29187826866257, 46.25436066721182, 0.0
10464, 98.76513169740264, 47.50155702427422, 0.0
10465, 98.76395942288754, 46.25145355560117, 0.0
10466, 98.76630397191774, 48.75166049294704, 0.0
10467, 79.6747441669761, 62.02157224329609, 0.0
10468, 78.49199361323222, 60.72767439543094, 0.0
10469, 79.6459548100587, 60.79172004457145, 0.0
10470, 78.55729274256646, 63.18581014794319, 0.0
10471, 79.7035335238935, 63.25142444202073, 0.0
10472, 77.37454218882259, 61.89191230007805, 0.0
10473, 77.41105196123942, 63.12019585386566, 0.0
10474, 77.33803241640577, 60.66362874629044, 0.0
10475, 83.02530643810309, 143.894626323883, 0.0
10476, 84.23192413277172, 142.6269277422182, 0.0
10477, 85.41190913279797, 143.8422187126141, 0.0
10478, 84.21860778545053, 143.8684225182485, 0.0
10479, 81.8474682879291, 142.677468165398, 0.0
10480, 81.83200509075564, 143.9208301295174, 0.0
10481, 83.05408598259774, 141.4097695837332, 0.0
10482, 81.86293148510256, 141.4341062012786, 0.0
10483, 85.4363949775881, 141.3610963486425, 0.0
10484, 84.24524048009292, 141.3854329661879, 0.0
10485, 76.26598337321042, 9.972701069344218, 0.0
10486, 77.51990035682277, 11.21956503622413, 0.0
10487, 76.27732687074436, 12.45920395298122, 0.0
10488, 76.27165512197739, 11.21595251116272, 0.0
10489, 78.76340247876358, 9.978726216596126, 0.0
10490, 80.01639082651356, 11.22679008634696, 0.0
10491, 78.77288870457275, 12.46762890597497, 0.0
10492, 78.76814559166816, 11.22317756128555, 0.0
10493, 80.02494841646032, 13.71689267859672, 0.0
10494, 77.53031521849434, 13.70726782273205, 0.0
10495, 78.77763181747733, 13.71208025066439, 0.0
10496, 76.28299861951133, 13.70245539479972, 0.0
10497, 34.44053701031932, 30.68855917878693, 0.0
10498, 33.16344051349712, 31.95237240712375, 0.0
10499, 31.96567203484726, 30.75236017613172, 0.0
10500, 33.20310452258329, 30.72045967745932, 0.0
10501, 34.36373875199725, 33.15726827336005, 0.0
10502, 33.08411249532479, 34.41619786645258, 0.0
10503, 31.88381425682467, 33.21130200021628, 0.0
10504, 33.12377650441096, 33.18428513678816, 0.0
10505, 30.60165824030196, 34.46534795806453, 0.0
10506, 29.40388976165209, 33.2653357270725, 0.0
10507, 30.68604577817481, 32.01128976922425, 0.0
10508, 30.64385200923839, 33.23831886364438, 0.0
10509, 29.4908070593752, 30.81616117347651, 0.0
10510, 30.72823954711123, 30.78426067480411, 0.0
10511, 95.02311460041142, 171.2569443034641, 0.0
10512, 93.77844252309825, 172.5102099624632, 0.0
10513, 92.53976836521154, 171.2650306735635, 0.0
10514, 93.78144148281149, 171.2609874885138, 0.0
10515, 95.0183046915176, 173.7555901520431, 0.0
10516, 92.53258243525245, 173.7632747207822, 0.0
10517, 93.77544356338504, 173.7594324364127, 0.0
10518, 91.29390827736574, 172.5180954318824, 0.0
10519, 91.28972130711986, 173.7671170051517, 0.0
10520, 91.2980952476116, 171.2690738586132, 0.0
10521, 51.2470742233269, 2.476588894373299, 0.0
10522, 52.49634842126876, 3.714899661923207, 0.0
10523, 51.24561133507945, 3.714883341559949, 0.0
10524, 52.49878280696956, 1.238299887307736, 0.0
10525, 51.24853711157388, 1.23829444718665, 0.0
10526, 54.99927419775941, 1.238310767549908, 0.0
10527, 53.74805700491123, 2.476610654857644, 0.0
10528, 53.74902850236468, 1.238305327428822, 0.0
10529, 54.99782259364721, 3.714932302649724, 0.0
10530, 53.747085507458, 3.714915982286465, 0.0
10531, 55.01002243770468, 196.2793360944717, 0.0
10532, 53.75705837118396, 197.5201577944662, 0.0
10533, 52.51115267558907, 196.2811372889269, 0.0
10534, 53.76058755664688, 196.2802366916993, 0.0
10535, 55.00334081274032, 198.7597786981572, 0.0
10536, 52.50371755870177, 198.760379096309, 0.0
10537, 53.75352918572121, 198.7600788972331, 0.0
10538, 51.25781186310689, 197.5213585907697, 0.0
10539, 51.25390593168251, 198.7606792953848, 0.0
10540, 51.26171779453126, 196.2820378861546, 0.0
10541, 41.26538833209897, 182.7719684426974, 0.0
10542, 42.53014623585891, 183.9944930272803, 0.0
10543, 41.27422974285967, 183.9892095635407, 0.0
10544, 42.51602828176996, 181.5614595928073, 0.0
10545, 41.25654692133827, 181.554727321854, 0.0
10546, 43.7807861855299, 182.7839841773902, 0.0
10547, 43.77550964220165, 181.5681918637605, 0.0
10548, 43.78606272885814, 183.9997764910199, 0.0
10549, 39.58524186545304, 28.14086051506679, 0.0
10550, 40.89402734630318, 26.91859492665595, 0.0
10551, 42.15293519291342, 28.10433212047297, 0.0
10552, 40.86908852918323, 28.12259631776988, 0.0
10553, 39.64336170024165, 25.73021020244838, 0.0
10554, 40.94390498054306, 24.51059214442808, 0.0
10555, 42.19457062660459, 25.69897686863565, 0.0
10556, 40.91896616342311, 25.71459353554201, 0.0
10557, 43.48687170635728, 24.48200634100589, 0.0
10558, 43.45347847321483, 26.88471406245267, 0.0
10559, 43.47017508978605, 25.68336020172928, 0.0
10560, 43.43678185664361, 28.08606792317606, 0.0
10561, 39.99109861206388, 3.721690321802645, 0.0
10562, 41.24442323345777, 2.480273984711972, 0.0
10563, 42.49217108847259, 3.71913163233327, 0.0
10564, 41.24163485026823, 3.720410977067958, 0.0
10565, 39.99703287058132, 1.240563440600882, 0.0
10566, 42.4973903627133, 1.23971054411109, 0.0
10567, 41.24721161664735, 1.240136992355986, 0.0
10568, 43.74513821772926, 2.478568191732389, 0.0
10569, 43.7475691087811, 1.239284095866194, 0.0
10570, 43.74270732667752, 3.717852287598583, 0.0
10571, 90.00955462476469, 186.2578957979731, 0.0
10572, 88.75974375799305, 187.5090043784046, 0.0
10573, 87.51438612353103, 186.2628948209633, 0.0
10574, 88.76197037414784, 186.2603953094682, 0.0
10575, 90.00593700676094, 188.7557851035865, 0.0
10576, 88.75529052568346, 190.0062225162773, 0.0
10577, 87.50909727691557, 188.7594417910954, 0.0
10578, 88.75751714183825, 188.757613447341, 0.0
10579, 86.25761518153223, 190.0092080360455, 0.0
10580, 85.01225754707019, 188.7630984786042, 0.0
10581, 86.26373964245354, 187.5133322336541, 0.0
10582, 86.26067741199287, 188.7612701348498, 0.0
10583, 85.01921762229736, 186.2678938439534, 0.0
10584, 86.26680187291421, 186.2653943324584, 0.0
10585, 58.76229776365793, 195.034971239413, 0.0
10586, 57.51871160272455, 193.7995563088598, 0.0
10587, 58.77435472915475, 192.560065460606, 0.0
10588, 58.76832624640634, 193.7975183500095, 0.0
10589, 56.26300808801055, 195.0377336082236, 0.0
10590, 56.27518583007497, 192.5654549271968, 0.0
10591, 56.26909695904276, 193.8015942677102, 0.0
10592, 57.53082895650518, 191.3259640789429, 0.0
10593, 56.28127470110719, 191.3293155866834, 0.0
10594, 58.78038321190316, 191.3226125712025, 0.0
10595, 43.75955744992684, 197.5226903409174, 0.0
10596, 42.5143948204326, 196.2841188557816, 0.0
10597, 43.76433617476083, 196.2840355113761, 0.0
10598, 42.50479827365059, 198.7613729519272, 0.0
10599, 43.75477872509275, 198.7613451704587, 0.0
10600, 40.00483737076389, 198.7614285148642, 0.0
10601, 41.25963564415562, 197.5228014667914, 0.0
10602, 41.25481782220712, 198.7614007333957, 0.0
10603, 40.01451211177542, 196.2842855445926, 0.0
10604, 41.264453466104, 196.2842022001871, 0.0
10605, 68.7556706503104, 195.0179894829328, 0.0
10606, 67.51106255926643, 193.777378330238, 0.0
10607, 68.76555350840366, 192.532416950339, 0.0
10608, 68.76061207935703, 193.7752032166359, 0.0
10609, 66.25624985205403, 195.0212189670887, 0.0
10610, 66.26677622629764, 192.5378879205916, 0.0
10611, 66.26151303917582, 193.7795534438401, 0.0
10612, 66.27730260054125, 190.0545568740944, 0.0
10613, 67.52126717543487, 191.2929265406926, 0.0
10614, 66.27203941341944, 191.296222397343, 0.0
10615, 68.77543636649693, 190.0468444177453, 0.0
10616, 68.7704949374503, 191.2896306840422, 0.0
10617, 28.75792225366376, 195.0254941626221, 0.0
10618, 27.50576732559129, 193.7813599550612, 0.0
10619, 28.75700033831986, 192.5439878752899, 0.0
10620, 28.75746129599181, 193.784741018956, 0.0
10621, 26.25527337807207, 195.0200709961449, 0.0
10622, 26.25287333230945, 192.535886786188, 0.0
10623, 26.25407335519076, 193.7779788911664, 0.0
10624, 27.50410634503802, 191.2985147064167, 0.0
10625, 26.25167330942814, 191.2937946812095, 0.0
10626, 28.75653938064791, 191.3032347316238, 0.0
10627, 56.2864446166258, 19.6740147609741, 0.0
10628, 57.56248023454329, 20.89770015295754, 0.0
10629, 56.29985916907337, 22.09404396009372, 0.0
10630, 56.29315189284958, 20.88402936053391, 0.0
10631, 58.81990414056531, 19.69843207359792, 0.0
10632, 58.84371301190868, 22.12430981716441, 0.0
10633, 58.83180857623699, 20.91137094538117, 0.0
10634, 57.58109194643876, 23.3206536243006, 0.0
10635, 58.85561744758036, 23.33724868894765, 0.0
10636, 56.30656644529716, 23.30405855965354, 0.0
10637, 67.55796058037672, 186.3385713173556, 0.0
10638, 66.2993915376081, 187.5826228277415, 0.0
10639, 66.31043600614152, 186.3466558045651, 0.0
10640, 68.7954688919069, 187.5692726926792, 0.0
10641, 68.8054851546119, 186.3304868301461, 0.0
10642, 67.5368998491383, 188.8133242030651, 0.0
10643, 68.78545262920193, 188.8080585552123, 0.0
10644, 66.28834706907467, 188.818589850918, 0.0
10645, 77.5120778871252, 8.729447510208372, 0.0
10646, 78.7585610790419, 7.485438001862249, 0.0
10647, 80.00988567068028, 8.734716708250001, 0.0
10648, 78.76098177890275, 8.732082109229186, 0.0
10649, 76.26036461748492, 7.480924753030897, 0.0
10650, 76.26317399534767, 8.726812911187558, 0.0
10651, 76.25474586175945, 4.989148436717576, 0.0
10652, 77.50684780940162, 6.236915244684774, 0.0
10653, 76.25755523962219, 6.235036594874236, 0.0
10654, 78.75371967932023, 4.992149787128373, 0.0
10655, 80.0054329489605, 6.240672544305848, 0.0
10656, 78.75614037918106, 6.238793894495311, 0.0
10657, 66.25583024589665, 4.972814361762668, 0.0
10658, 67.51010840320905, 6.216246629655658, 0.0
10659, 66.26422362251421, 7.45327150109915, 0.0
10660, 66.26002693420543, 6.213042931430909, 0.0
10661, 68.75580009955956, 4.978007044243498, 0.0
10662, 68.76457964486573, 7.460893611517316, 0.0
10663, 68.76018987221264, 6.219450327880407, 0.0
10664, 67.51869486417091, 8.697918482960809, 0.0
10665, 68.76896941751883, 8.702336895154225, 0.0
10666, 66.26842031082299, 8.69350007076739, 0.0
10667, 92.52886302828169, 28.7311298796786, 0.0
10668, 93.76990014340404, 27.48668520633869, 0.0
10669, 95.01594354171857, 28.74130496146027, 0.0
10670, 93.77240328500014, 28.73621742056944, 0.0
10671, 91.28182170242651, 27.47688566146932, 0.0
10672, 91.28532277156326, 28.72604233878777, 0.0
10673, 91.27481956415305, 24.97857230683243, 0.0
10674, 92.52285881754888, 26.23244098812942, 0.0
10675, 91.27832063328978, 26.22772898415088, 0.0
10676, 93.76489386021188, 24.98762077787721, 0.0
10677, 95.01193518606706, 26.24186499608649, 0.0
10678, 93.76739700180795, 26.23715299210795, 0.0
10679, 3.724764897381612, 164.9901349278548, 0.0
10680, 2.481312292553493, 163.7436898437594, 0.0
10681, 3.719171980278867, 162.4909346031658, 0.0
10682, 3.721968438830239, 163.7405347655103, 0.0
10683, 1.241588299127204, 164.996711642784, 0.0
10684, 1.239723993426289, 162.4969782012329, 0.0
10685, 1.240656146276746, 163.7468449220082, 0.0
10686, 2.477583681151663, 161.2442229606393, 0.0
10687, 1.238791840575832, 161.2471114804576, 0.0
10688, 3.716375521727495, 161.2413344408213, 0.0
10689, 12.10924752613316, 133.8366427093104, 0.0
10690, 13.2993597237445, 132.6063890567694, 0.0
10691, 13.30565101798269, 133.8683761471361, 0.0
10692, 9.716440542434118, 133.7731758336591, 0.0
10693, 10.90868467132847, 132.5443945266204, 0.0
10694, 10.91284403428364, 133.8049092714847, 0.0
10695, 9.710253747806801, 131.2536186894327, 0.0
10696, 12.09879686893981, 131.3141408740793, 0.0
10697, 10.90452530837331, 131.283879781756, 0.0
10698, 13.29306842950631, 131.3444019664026, 0.0
10699, 87.5389648502834, 23.71266900663335, 0.0
10700, 88.77822347853142, 22.47269990608186, 0.0
10701, 90.02617051110462, 23.72649442094086, 0.0
10702, 88.78256768069402, 23.71958171378711, 0.0
10703, 86.28955322342301, 22.46021817710221, 0.0
10704, 86.29536201987281, 23.7057562994796, 0.0
10705, 86.27793563052344, 19.96914193234745, 0.0
10706, 87.52881185167102, 21.22024907655072, 0.0
10707, 86.28374442697323, 21.21468005472483, 0.0
10708, 88.7695350742062, 19.97893629067138, 0.0
10709, 90.0189467010666, 21.23138712020251, 0.0
10710, 88.77387927636882, 21.22581809837662, 0.0
10711, 96.27968722115887, 162.5079023707068, 0.0
10712, 97.51852864697099, 163.7550683046156, 0.0
10713, 96.27589871975412, 165.0073025433386, 0.0
10714, 96.27779297045649, 163.7576024570227, 0.0
10715, 96.2834757225636, 160.0085021980754, 0.0
10716, 97.52105431457416, 161.2554681895233, 0.0
10717, 96.28158147186122, 161.2582022843911, 0.0
10718, 98.76115857418787, 160.0028340658793, 0.0
10719, 98.7598957403863, 162.5026341234318, 0.0
10720, 98.7605271572871, 161.2527340946567, 0.0
10721, 98.75863290658471, 165.0024341809852, 0.0
10722, 98.7592643234855, 163.7525341522085, 0.0
10723, 97.5268530330855, 156.2549384914374, 0.0
10724, 96.28801160727338, 157.5077725575423, 0.0
10725, 96.29027954962825, 156.2574077372757, 0.0
10726, 98.76267053575779, 157.5025908523592, 0.0
10727, 98.76342651654275, 156.2524692455997, 0.0
10728, 97.52382910994567, 158.755424918464, 0.0
10729, 98.76191455497283, 158.752712459119, 0.0
10730, 96.28574366491847, 158.7581373778089, 0.0
10731, 57.93668491379323, 153.4770896527392, 0.0
10732, 58.94305499246038, 154.6235803963135, 0.0
10733, 57.78738190729594, 154.5995614295111, 0.0
10734, 58.23529092678781, 151.2321460991951, 0.0
10735, 59.21062747084198, 152.3342294295345, 0.0
10736, 58.08598792029052, 152.3546178759672, 0.0
10737, 60.45353649327775, 151.1469617930948, 0.0
10738, 60.21699754950913, 153.4807201731088, 0.0
10739, 60.33526702139344, 152.3138409831018, 0.0
10740, 60.09872807762482, 154.6475993631158, 0.0
10741, 26.09953378563986, 131.619446232996, 0.0
10742, 24.97817419126164, 132.8802282955108, 0.0
10743, 24.92663237907561, 131.6105278584708, 0.0
10744, 28.44533659876835, 131.6372829820464, 0.0
10745, 27.3439812531282, 132.9035374761259, 0.0
10746, 27.2724351922041, 131.6283646075212, 0.0
10747, 28.60843296935461, 134.1931011508204, 0.0
10748, 26.22262165874999, 134.1643195386407, 0.0
10749, 27.4155273140523, 134.1787103447305, 0.0
10750, 25.02971600344767, 134.1499287325508, 0.0
10751, 61.45965042638784, 172.9320668083887, 0.0
10752, 62.70570747246364, 174.1295718271031, 0.0
10753, 61.44382142938758, 174.1549805781013, 0.0
10754, 62.74201771667069, 171.6824868093, 0.0
10755, 61.47547942338811, 171.7091530386761, 0.0
10756, 63.9880747627465, 172.8799918280144, 0.0
10757, 64.00855600995328, 171.6558205799239, 0.0
10758, 63.96759351553972, 174.1041630761048, 0.0
10759, 69.51022381335581, 157.9918788900842, 0.0
10760, 68.35180219849033, 156.8106074927107, 0.0
10761, 69.56795447239321, 156.7606322606858, 0.0
10762, 68.22424763803035, 159.2684323203983, 0.0
10763, 69.45249315431838, 159.2231255194826, 0.0
10764, 67.06582602316487, 158.0871609230247, 0.0
10765, 66.9960021217423, 159.3137391213139, 0.0
10766, 67.13564992458744, 156.8605827247356, 0.0
10767, 96.26993302703266, 34.99614106948722, 0.0
10768, 97.5150544566757, 36.24773281897846, 0.0
10769, 96.27523034299442, 37.49705738760061, 0.0
10770, 96.27258168501356, 36.24659922854392, 0.0
10771, 98.75664434234423, 34.99871368973187, 0.0
10772, 98.75841011433147, 37.49901912909411, 0.0
10773, 98.75752722833785, 36.24886640941273, 0.0
10774, 97.5185860006502, 38.74834369771646, 0.0
10775, 98.7592930003251, 38.74917184877542, 0.0
10776, 96.2778790009753, 38.7475155466574, 0.0
10777, 34.94071159577096, 45.1647004550241, 0.0
10778, 36.00082588916458, 46.79494001016332, 0.0
10779, 34.71824533905525, 47.80036900045979, 0.0
10780, 33.65813104566163, 46.17012944532058, 0.0
10781, 34.8294784674131, 46.48253472774195, 0.0
10782, 37.33247010783077, 45.81129844981454, 0.0
10783, 37.01187651400135, 48.40339213535481, 0.0
10784, 37.17217331091606, 47.10734529258468, 0.0
10785, 36.69128292017193, 50.99548582089506, 0.0
10786, 35.72929596389201, 49.40882112565128, 0.0
10787, 36.85157971708664, 49.69943897812494, 0.0
10788, 34.49577908233954, 50.43603754589546, 0.0
10789, 33.48472845750277, 48.82758542070397, 0.0
10790, 34.60701221069739, 49.11820327317763, 0.0
10791, 38.35145484442437, 26.95979744968016, 0.0
10792, 37.12413233711732, 25.77599173518501, 0.0
10793, 38.38374701867949, 25.7531009688167, 0.0
10794, 38.28687049591414, 29.37319041140709, 0.0
10795, 37.05308347488548, 28.19212734602046, 0.0
10796, 38.31916267016926, 28.16649393054363, 0.0
10797, 35.74824759162496, 29.42719989146928, 0.0
10798, 35.82576096757843, 27.00832163152531, 0.0
10799, 35.7870042796017, 28.2177607614973, 0.0
10800, 35.86451765555516, 25.79888250155332, 0.0
10801, 88.84044070002248, 167.537005430903, 0.0
10802, 87.6151530184059, 166.2984232886427, 0.0
10803, 88.84791145414839, 166.2889957029446, 0.0
10804, 87.59824785814699, 168.7940436648184, 0.0
10805, 88.83296994589658, 168.7850151588615, 0.0
10806, 86.37296017653041, 167.5554615225581, 0.0
10807, 86.3635257703974, 168.8030721707753, 0.0
10808, 86.38239458266342, 166.3078508743409, 0.0
10809, 13.70478705197863, 17.46121595752867, 0.0
10810, 12.46139215607068, 16.21576565967673, 0.0
10811, 13.7115211413702, 14.96458226961344, 0.0
10812, 13.70815409667441, 16.21289911357105, 0.0
10813, 12.45667718747057, 18.71414598533095, 0.0
10814, 13.70142000728285, 18.70953280148628, 0.0
10815, 9.967191547846017, 18.72337235302029, 0.0
10816, 11.21328229156262, 17.46869568747901, 0.0
10817, 11.21193436765829, 18.71875916917562, 0.0
10818, 9.96786827486321, 16.22149875188809, 0.0
10819, 11.21597813937127, 14.96856872408581, 0.0
10820, 11.21463021546695, 16.21863220578241, 0.0
10821, 82.52539846736018, 186.2751487214435, 0.0
10822, 81.27278991964151, 187.5244586377741, 0.0
10823, 80.03157931242299, 186.2824035989335, 0.0
10824, 81.27848888989159, 186.2787761601885, 0.0
10825, 83.76808836300302, 187.5184836534439, 0.0
10826, 83.77230804482875, 186.2715212826984, 0.0
10827, 83.75964899935153, 190.0124083949348, 0.0
10828, 82.51547981528435, 188.7677935697745, 0.0
10829, 83.76386868117729, 188.7654460241893, 0.0
10830, 81.26139197914134, 190.0158235929452, 0.0
10831, 80.01870208349851, 188.7724886609448, 0.0
10832, 81.26709094939142, 188.7701411153596, 0.0
10833, 14.96220805161647, 13.71456995848027, 0.0
10834, 16.21418427605531, 12.46539559788008, 0.0
10835, 17.45853703349997, 13.71059740824565, 0.0
10836, 16.21037254255822, 13.71258368336296, 0.0
10837, 14.96803887011009, 11.21853179068631, 0.0
10838, 16.22180774304947, 9.971019426914324, 0.0
10839, 17.46795314899469, 11.2178832341081, 0.0
10840, 16.21799600955239, 11.2182075123972, 0.0
10841, 18.72351467043462, 9.972032867164323, 0.0
10842, 18.71230590643935, 12.46308504447367, 0.0
10843, 18.71791028843699, 11.21755895581899, 0.0
10844, 18.70670152444172, 13.70861113312834, 0.0
10845, 38.51363223023088, 37.34485133211611, 0.0
10846, 37.01925308548364, 35.79498367339779, 0.0
10847, 38.26388829434389, 34.34076935045331, 0.0
10848, 38.38876026228738, 35.84281034128471, 0.0
10849, 38.76337616611788, 40.3489333137789, 0.0
10850, 37.15568178210162, 38.66951000582455, 0.0
10851, 38.63850419817438, 38.8468923229475, 0.0
10852, 35.68441609470334, 39.86461303029697, 0.0
10853, 34.19003694995611, 38.31474537157865, 0.0
10854, 35.66130263735438, 37.11964234710624, 0.0
10855, 35.67285936602886, 38.4921276887016, 0.0
10856, 34.28023873187617, 35.69933033762396, 0.0
10857, 35.63818918000543, 34.37467166391551, 0.0
10858, 35.6497459086799, 35.74715700551087, 0.0
10859, 71.0769553197713, 146.850911007767, 0.0
10860, 69.86562216518965, 148.1560971454402, 0.0
10861, 68.70061990017635, 147.0014521451241, 0.0
10862, 69.88878760997382, 146.9261815764455, 0.0
10863, 71.03262816688522, 149.3170369607355, 0.0
10864, 68.65228527392571, 149.4549884681342, 0.0
10865, 69.84245672040547, 149.3860127144349, 0.0
10866, 67.48728300891241, 148.3003434678181, 0.0
10867, 67.46211382744598, 149.5239642218336, 0.0
10868, 67.51245219037887, 147.0767227138026, 0.0
10869, 13.73621753625811, 185.0207162864893, 0.0
10870, 12.48401394022071, 183.7687600144918, 0.0
10871, 13.72645989081438, 182.5250513719732, 0.0
10872, 13.73133871353624, 183.7728838292313, 0.0
10873, 11.24026788731507, 185.0134033141045, 0.0
10874, 9.989364393589643, 183.7605123850129, 0.0
10875, 11.23311044649529, 182.5158690854003, 0.0
10876, 11.23668916690518, 183.7646361997524, 0.0
10877, 9.983507055081835, 181.2620434992146, 0.0
10878, 12.47555639708895, 181.2721604428817, 0.0
10879, 11.2295317260854, 181.2671019710481, 0.0
10880, 13.72158106809251, 181.2772189147152, 0.0
10881, 60.00895695117575, 196.2751925412558, 0.0
10882, 58.75614888195815, 197.5174856197065, 0.0
10883, 57.50948969444033, 196.2772643178637, 0.0
10884, 58.75922332280804, 196.2762284295598, 0.0
10885, 60.002985650564, 198.7583975137519, 0.0
10886, 57.50316323165252, 198.7590881059546, 0.0
10887, 58.75307444110827, 198.7587428098533, 0.0
10888, 56.25650404413446, 197.5188668041118, 0.0
10889, 56.25325202219642, 198.7594334020559, 0.0
10890, 56.25975606607251, 196.2783002061677, 0.0
10891, 7.462591670611769, 171.250053637655, 0.0
10892, 6.224667780459113, 172.4993986870896, 0.0
10893, 4.979498268066344, 171.2457337175341, 0.0
10894, 6.221044969339056, 171.2478936775946, 0.0
10895, 8.709625829985344, 172.5037843769776, 0.0
10896, 8.704138371884483, 171.2522135977155, 0.0
10897, 8.720600746187067, 175.0069259355019, 0.0
10898, 7.471701939832687, 173.7531294264122, 0.0
10899, 8.715113288086206, 173.7553551562398, 0.0
10900, 6.231913402699226, 175.0024087060797, 0.0
10901, 4.984879243325651, 173.7486779667571, 0.0
10902, 6.228290591579169, 173.7509036965847, 0.0
10903, 82.53936481113493, 18.70410795817185, 0.0
10904, 83.77894839129513, 17.46600465734291, 0.0
10905, 85.02811983860667, 18.71824267871095, 0.0
10906, 83.78374232487079, 18.7111753184414, 0.0
10907, 81.28863763682284, 17.45353276355588, 0.0
10908, 81.29498729739906, 18.6970405979023, 0.0
10909, 81.2759383156704, 14.96651709486304, 0.0
10910, 82.52822121698304, 16.21542946272694, 0.0
10911, 81.28228797624662, 16.21002492920946, 0.0
10912, 83.76936052414382, 14.97566333514592, 0.0
10913, 85.02008769845591, 16.22623852976189, 0.0
10914, 83.77415445771948, 16.22083399624442, 0.0
10915, 4.980402389565805, 23.73903765293508, 0.0
10916, 6.225943335134862, 22.48467675740397, 0.0
10917, 7.467585571228016, 23.73027147665371, 0.0
10918, 6.22399398039691, 23.7346545647944, 0.0
10919, 4.982915239656522, 21.23847375473526, 0.0
10920, 6.229842044610766, 19.98472114262311, 0.0
10921, 7.472870140089105, 21.23092414529182, 0.0
10922, 6.227892689872814, 21.23469895001354, 0.0
10923, 8.721182804428533, 19.97777981659862, 0.0
10924, 8.71451237618226, 22.47651886454156, 0.0
10925, 8.717847590305396, 21.22714934057009, 0.0
10926, 8.711177162059121, 23.72588838851302, 0.0
10927, 52.56453852683502, 161.3499120347638, 0.0
10928, 51.12876550731687, 162.6112420835175, 0.0
10929, 51.11224272504074, 161.1338249440018, 0.0
10930, 53.95172633550214, 162.9093589304316, 0.0
10931, 54.01683432862929, 161.5659991255259, 0.0
10932, 53.82151034924786, 165.596078540243, 0.0
10933, 52.515953315984, 164.1706889791853, 0.0
10934, 53.886618342375, 164.2527187353373, 0.0
10935, 51.16181107186912, 165.5660763625489, 0.0
10936, 51.145288289593, 164.0886592230332, 0.0
10937, 87.5209081842662, 18.72678190812435, 0.0
10938, 88.76506963998573, 17.48316675499073, 0.0
10939, 90.01369652992574, 18.73532113753775, 0.0
10940, 88.76730235709599, 18.73105152283105, 0.0
10941, 86.27109239234943, 17.47588265448786, 0.0
10942, 86.27451401143644, 18.72251229341765, 0.0
10943, 86.26424915417542, 14.98262337662827, 0.0
10944, 87.51525384806897, 16.23226750135424, 0.0
10945, 86.26767077326242, 16.22925301555806, 0.0
10946, 88.76060420576523, 14.98739721931008, 0.0
10947, 90.01041999768199, 16.23829647294658, 0.0
10948, 88.76283692287548, 16.23528198715041, 0.0
10949, 56.24913457665031, 2.47769266811066, 0.0
10950, 57.49958113649134, 3.718145701682257, 0.0
10951, 56.24870186506928, 3.716539002165991, 0.0
10952, 57.49986037870325, 1.239381900560752, 0.0
10953, 56.24956728823125, 1.23884633405533, 0.0
10954, 60.00044655965041, 1.240453033571597, 0.0
10955, 58.7503069385454, 2.47983493413235, 0.0
10956, 58.75015346917669, 1.239917467066175, 0.0
10957, 60.00133967933658, 3.721359100714791, 0.0
10958, 58.75046040791396, 3.719752401198525, 0.0
10959, 62.52630623608003, 11.14821039485749, 0.0
10960, 61.28105742759055, 12.372202982, 0.0
10961, 61.27371243189219, 11.14129793578499, 0.0
10962, 63.7875136660633, 12.38764616383139, 0.0
10963, 63.77890004026786, 11.15512285392998, 0.0
10964, 62.54226485757383, 13.6116387509739, 0.0
10965, 63.79612729185874, 13.62016947373279, 0.0
10966, 61.28840242328891, 13.60310802821501, 0.0
10967, 34.99125005922001, 3.730023871537814, 0.0
10968, 36.244141464903, 2.485293656069348, 0.0
10969, 37.49117433564223, 3.72585709667023, 0.0
10970, 36.24121219743112, 3.727940484104022, 0.0
10971, 34.99708335297215, 1.243341290512605, 0.0
10972, 37.4970581117776, 1.241952365556743, 0.0
10973, 36.24707073237488, 1.242646828034674, 0.0
10974, 38.74409098251625, 2.482515806157625, 0.0
10975, 38.74704549117946, 1.241257903078812, 0.0
10976, 38.74113647385305, 3.723773709236437, 0.0
10977, 31.53032044746087, 156.9488908705871, 0.0
10978, 30.39091826721431, 158.118697611153, 0.0
10979, 30.33216216271801, 156.8883416269259, 0.0
10980, 32.79845056238568, 158.2343582459204, 0.0
10981, 32.72847873220371, 157.0094401142484, 0.0
10982, 31.65904838213913, 159.4041649864863, 0.0
10983, 32.86842239256766, 159.4592763775923, 0.0
10984, 30.4496743717106, 159.3490535953802, 0.0
10985, 89.17394248399519, 127.7134868766542, 0.0
10986, 88.01404654618784, 126.4909294435701, 0.0
10987, 89.18801642429422, 126.466394313813, 0.0
10988, 87.97947422683544, 128.9833133540523, 0.0
10989, 89.15986854369615, 128.9605794394954, 0.0
10990, 85.61868559311398, 129.0287811831662, 0.0
10991, 86.81957828902809, 127.7607559209682, 0.0
10992, 86.7990799099747, 129.0060472686093, 0.0
10993, 85.66610678997509, 126.5399997030843, 0.0
10994, 86.84007666808147, 126.5154645733272, 0.0
10995, 16.97571120167965, 144.0124561928196, 0.0
10996, 18.1465662707505, 142.7998099914698, 0.0
10997, 18.16574810298975, 144.0482344096933, 0.0
10998, 14.59563739905947, 143.9408997590722, 0.0
10999, 15.76962744410296, 142.7278969134803, 0.0
11000, 15.78567430036956, 143.9766779759459, 0.0
11001, 14.56667866249893, 141.4429809898987, 0.0
11002, 16.94048251317381, 141.5152507121304, 0.0
11003, 15.75358058783637, 141.4791158510146, 0.0
11004, 18.12738443851125, 141.5513855732463, 0.0
11005, 76.28186462633595, 187.5388038636624, 0.0
11006, 77.52234381835362, 188.7789721894607, 0.0
11007, 76.26646474522641, 190.0256240437749, 0.0
11008, 76.27416468578119, 188.7822139537186, 0.0
11009, 77.53690281540148, 186.291063715382, 0.0
11010, 76.2895645668907, 186.2953937736062, 0.0
11011, 78.77738200741915, 187.5312320411803, 0.0
11012, 78.78424106391223, 186.2867336571577, 0.0
11013, 78.76366389443297, 190.0202288092252, 0.0
11014, 78.77052295092605, 188.7757304252028, 0.0
11015, 87.81818133478899, 143.8157461013031, 0.0
11016, 89.0290688034483, 142.5616980592609, 0.0
11017, 89.0213174357845, 143.8025097956477, 0.0
11018, 86.62579097127812, 142.5883377068392, 0.0
11019, 86.61504523379347, 143.8289824069586, 0.0
11020, 87.83667843993744, 141.334289664797, 0.0
11021, 86.63653670876278, 141.3476930067198, 0.0
11022, 89.03682017111211, 141.3208863228742, 0.0
11023, 38.75920532933755, 197.5217737865377, 0.0
11024, 37.51310387598146, 196.2810358150205, 0.0
11025, 38.76380799387843, 196.2826606798066, 0.0
11026, 37.50436795882945, 198.7603452716735, 0.0
11027, 38.75460266479694, 198.7608868932689, 0.0
11028, 35.00389854689497, 198.7592620284828, 0.0
11029, 36.25826650547334, 197.5196073001563, 0.0
11030, 36.25413325286181, 198.7598036500781, 0.0
11031, 35.01169564018749, 196.2777860854483, 0.0
11032, 36.26239975808448, 196.2794109502344, 0.0
11033, 82.51930592067617, 13.72492954600182, 0.0
11034, 83.76360882142436, 12.48223262426283, 0.0
11035, 85.013663424892, 13.73296641340693, 0.0
11036, 83.76648467278409, 13.72894797970438, 0.0
11037, 81.26831602146609, 12.4753051297355, 0.0
11038, 81.27212716856825, 13.72091111229927, 0.0
11039, 81.26069372726175, 9.98409316460797, 0.0
11040, 82.51261892221427, 11.23260820799651, 0.0
11041, 81.26450487436392, 11.22969914717174, 0.0
11042, 83.75785711870492, 9.98880191337975, 0.0
11043, 85.008847017915, 11.23842632964607, 0.0
11044, 83.76073297006464, 11.23551726882129, 0.0
11045, 25.34028832329334, 148.038458675498, 0.0
11046, 26.54555636703681, 149.335591321275, 0.0
11047, 25.36138667645817, 149.2762535176899, 0.0
11048, 26.50694524458309, 146.8638450550474, 0.0
11049, 25.3191899701285, 146.8006638333063, 0.0
11050, 27.71221328832656, 148.1609777008243, 0.0
11051, 27.69470051903768, 146.9270262767885, 0.0
11052, 27.72972605761544, 149.3949291248601, 0.0
11053, 3.732605835327517, 169.9956961947453, 0.0
11054, 2.487097067227361, 168.7462039187556, 0.0
11055, 3.728685366354565, 167.4929155612998, 0.0
11056, 3.730645600841041, 168.7443058780225, 0.0
11057, 1.244201945109172, 169.9985653983905, 0.0
11058, 1.242895122118188, 167.4976385205866, 0.0
11059, 1.24354853361368, 168.7481019594888, 0.0
11060, 2.484483421245392, 166.2443501631313, 0.0
11061, 1.242241710622696, 166.2471750816862, 0.0
11062, 3.726725131868089, 166.2415252445773, 0.0
11063, 2.476040934055644, 38.74178083343241, 0.0
11064, 3.715956697252933, 37.48859239839842, 0.0
11065, 3.714061401083466, 38.73767125001129, 0.0
11066, 1.238652232417644, 37.49619746630957, 0.0
11067, 1.238020467027822, 38.74589041685475, 0.0
11068, 1.239915763197289, 34.99681156522357, 0.0
11069, 2.478567995614933, 36.24300903127622, 0.0
11070, 1.239283997807467, 36.2465045157668, 0.0
11071, 3.719747289591866, 34.99043469517332, 0.0
11072, 3.7178519934224, 36.23951354678587, 0.0
11073, 96.26346078965824, 29.9932687080804, 0.0
11074, 97.51005256600124, 31.24599119891266, 0.0
11075, 96.26669690834545, 32.49470488878384, 0.0
11076, 96.26507884900184, 31.24398679843213, 0.0
11077, 98.75448692988608, 29.99775623594691, 0.0
11078, 98.75556563611515, 32.49823496283949, 0.0
11079, 98.75502628300063, 31.24799559939331, 0.0
11080, 97.51220997845937, 33.74694865271061, 0.0
11081, 98.7561049892297, 33.74847432628574, 0.0
11082, 96.26831496768905, 33.74542297913553, 0.0
11083, 65.00490458975655, 196.267125281875, 0.0
11084, 63.75394512015824, 197.5127613978134, 0.0
11085, 62.50693077046647, 196.2711589115654, 0.0
11086, 63.75591768011151, 196.2691420967202, 0.0
11087, 65.00163486341798, 198.7557084272917, 0.0
11088, 62.50231025699193, 198.7570529705218, 0.0
11089, 63.75197256020582, 198.7563806989067, 0.0
11090, 61.25529590729954, 197.5154504842737, 0.0
11091, 61.25264795377801, 198.7577252421369, 0.0
11092, 61.25794386082111, 196.2731757264106, 0.0
11093, 14.99283270570188, 188.7661943083097, 0.0
11094, 16.23881569976801, 187.5236140229185, 0.0
11095, 17.49160372684438, 188.7739703402455, 0.0
11096, 16.24562073277826, 190.0165506256367, 0.0
11097, 16.24221821627314, 188.7700823242776, 0.0
11098, 14.98707247572038, 186.2716466178911, 0.0
11099, 17.4837538908054, 186.2826448252278, 0.0
11100, 16.23541318326289, 186.2771457215595, 0.0
11101, 18.73654191788177, 187.5330011425548, 0.0
11102, 18.73209459834791, 186.2881439288962, 0.0
11103, 18.74543655694949, 190.0227155698719, 0.0
11104, 18.74098923741563, 188.7778583562134, 0.0
11105, 80.00989351955673, 191.2647627481164, 0.0
11106, 78.75846694625224, 192.5139636977153, 0.0
11107, 77.5122373211285, 191.2694297588241, 0.0
11108, 78.76106542034259, 191.2670962534703, 0.0
11109, 80.00515362059764, 193.7592258604484, 0.0
11110, 78.75326999807149, 195.0076985862053, 0.0
11111, 77.50658332372609, 193.7624364234721, 0.0
11112, 78.75586847216186, 193.7608311419603, 0.0
11113, 76.2542426519783, 195.0101809253871, 0.0
11114, 76.26035369860236, 192.517902484581, 0.0
11115, 76.25729817529034, 193.764041704984, 0.0
11116, 76.26340922191437, 191.2717632641779, 0.0
11117, 68.3803275635053, 61.29719913754099, 0.0
11118, 69.56961881529459, 62.61947177656412, 0.0
11119, 68.46218836603549, 62.54978968668529, 0.0
11120, 69.41709273926334, 60.12890374928651, 0.0
11121, 68.2984667609751, 60.04460858839668, 0.0
11122, 70.60638399105262, 61.45117638830965, 0.0
11123, 70.53571871755157, 60.21319891017635, 0.0
11124, 70.67704926455369, 62.68915386644295, 0.0
11125, 13.71595503781846, 12.46736595467811, 0.0
11126, 12.46830510197511, 11.21898380373458, 0.0
11127, 13.72038893426673, 9.970149639742775, 0.0
11128, 13.7181719860426, 11.21875779721044, 0.0
11129, 12.46526812757219, 13.71737826581127, 0.0
11130, 13.71373808959433, 13.71597411214577, 0.0
11131, 9.968328203527918, 13.72018657314228, 0.0
11132, 11.21761819172884, 12.46899611486775, 0.0
11133, 11.21679816555006, 13.71878241947678, 0.0
11134, 9.968571333840135, 11.21943581678285, 0.0
11135, 11.21925824408641, 9.969423505649683, 0.0
11136, 11.21843821790762, 11.21920981025871, 0.0
11137, 91.2629732215403, 19.98641713712531, 0.0
11138, 92.51292291332038, 21.23752473890166, 0.0
11139, 91.26889639284667, 22.48249472197887, 0.0
11140, 91.26593480719349, 21.23445592955208, 0.0
11141, 93.7582500725257, 19.99158447170925, 0.0
11142, 95.00689912557414, 21.24366235760081, 0.0
11143, 93.7615719663688, 22.48960262479323, 0.0
11144, 93.75991101944726, 21.24059354825124, 0.0
11145, 95.0089203806856, 23.74265079480001, 0.0
11146, 92.51754544589511, 23.73457260787044, 0.0
11147, 93.76323291329035, 23.73861170133522, 0.0
11148, 91.27185797849987, 23.73053351440565, 0.0
11149, 44.62262269213318, 166.8984948736849, 0.0
11150, 43.41774969634892, 168.159778991423, 0.0
11151, 42.07278315536607, 166.9310249073102, 0.0
11152, 43.34770292374962, 166.9147598904975, 0.0
11153, 44.75999632193691, 169.4051041718563, 0.0
11154, 43.55784324154753, 170.649817193274, 0.0
11155, 42.21559661595954, 169.4044920128407, 0.0
11156, 43.48779646894823, 169.4047980923485, 0.0
11157, 41.01616345096504, 170.632633937938, 0.0
11158, 40.87063007497669, 168.1757379287279, 0.0
11159, 40.94339676297086, 169.404185933333, 0.0
11160, 40.79786338698251, 166.9472899241229, 0.0
11161, 27.15807652634192, 96.31134108014359, 0.0
11162, 26.39195149842515, 94.55563982247122, 0.0
11163, 27.9681716624486, 93.81621175558062, 0.0
11164, 27.56312409439526, 95.06377641786213, 0.0
11165, 24.91867135146156, 95.31716770282404, 0.0
11166, 24.04960630648494, 93.53936663168945, 0.0
11167, 25.52288645344853, 92.77783875133663, 0.0
11168, 25.22077890245505, 94.04750322708033, 0.0
11169, 24.55088139141206, 90.97793786673982, 0.0
11170, 27.09910661747197, 92.03841068444603, 0.0
11171, 25.82499400444201, 91.50817427559294, 0.0
11172, 28.37321923050193, 92.56864709329912, 0.0
11173, 91.2643972443943, 182.5090584765238, 0.0
11174, 92.50973061072622, 183.7563922797405, 0.0
11175, 91.25950733360737, 185.0073110821254, 0.0
11176, 91.26195228900085, 183.7581847793246, 0.0
11177, 92.51388936528224, 181.2578348010525, 0.0
11178, 91.26684219978777, 181.259932173723, 0.0
11179, 95.00798369627117, 181.2536400557116, 0.0
11180, 93.75922273161416, 182.5051686042692, 0.0
11181, 93.76093653077672, 181.2557374283821, 0.0
11182, 95.00528725417698, 183.7528072805721, 0.0
11183, 93.75579513328904, 185.0040309560434, 0.0
11184, 93.7575089324516, 183.7545997801563, 0.0
11185, 61.25140050447936, 2.481956802922677, 0.0
11186, 62.50286183429383, 3.72451130805324, 0.0
11187, 61.2521007568152, 3.722935204384015, 0.0
11188, 62.50095394463663, 1.24150376935108, 0.0
11189, 61.25070025214374, 1.240978401461339, 0.0
11190, 65.00146132962274, 1.242554505130563, 0.0
11191, 63.75241527445107, 2.484058274481643, 0.0
11192, 63.75120763712884, 1.242029137240822, 0.0
11193, 65.00438398925105, 3.72766351539169, 0.0
11194, 63.75362291177245, 3.726087411722465, 0.0
11195, 36.19313904592409, 154.7568195652141, 0.0
11196, 37.32594605277068, 153.6375291240597, 0.0
11197, 37.3877033326734, 154.8171306132898, 0.0
11198, 34.94662443154301, 153.4955795650932, 0.0
11199, 34.99857475917478, 154.6965085171383, 0.0
11200, 34.84272377627947, 151.0937216610029, 0.0
11201, 36.0794314383896, 152.3762891239389, 0.0
11202, 34.89467410391124, 152.2946506130481, 0.0
11203, 37.20243149296523, 151.2783261455996, 0.0
11204, 37.26418877286795, 152.4579276348297, 0.0
11205, 22.47475676666359, 8.721963825942254, 0.0
11206, 23.72822124355477, 7.474926746882003, 0.0
11207, 24.9714719152766, 8.717845405005333, 0.0
11208, 23.7231143409701, 8.719904615473792, 0.0
11209, 19.97804161805058, 8.726082246879177, 0.0
11210, 21.2305504825009, 7.478058853273355, 0.0
11211, 21.22639919235709, 8.724023036410713, 0.0
11212, 19.98538858589733, 6.233167566058885, 0.0
11213, 21.23885306278851, 4.986130486998634, 0.0
11214, 22.48401495939208, 6.231021774213104, 0.0
11215, 21.2347017726447, 6.232094670135994, 0.0
11216, 23.73843504872413, 4.984971009698421, 0.0
11217, 24.98264133288682, 6.228875982367322, 0.0
11218, 23.73332814613945, 6.229948878290212, 0.0
11219, 68.97142534588289, 52.79372883065202, 0.0
11220, 70.05353988931509, 51.65833359589656, 0.0
11221, 70.12345165181961, 52.87800977606589, 0.0
11222, 67.73945807710143, 51.49408357197915, 0.0
11223, 67.81939903994619, 52.70944788523816, 0.0
11224, 68.82157262053363, 50.35868833722369, 0.0
11225, 67.65951711425667, 50.27871925872014, 0.0
11226, 69.98362812681057, 50.43865741572723, 0.0
11227, 88.0914256390428, 108.9431689036013, 0.0
11228, 89.24653591754932, 107.6165023424087, 0.0
11229, 89.24859914170528, 108.8885676373706, 0.0
11230, 85.77707863371785, 109.0523714360628, 0.0
11231, 86.9247567310722, 107.7125234743923, 0.0
11232, 86.93425213638034, 108.997770169832, 0.0
11233, 85.75065564194938, 106.4686966447055, 0.0
11234, 88.07986700957872, 106.3858569131997, 0.0
11235, 86.91526132576405, 106.4272767789526, 0.0
11236, 89.24447269339338, 106.3444370474469, 0.0
11237, 86.25570118938836, 9.992257358703043, 0.0
11238, 87.50682934325525, 11.24127139672263, 0.0
11239, 86.25997517178189, 12.48744036766566, 0.0
11240, 86.25783818058511, 11.23984886318435, 0.0
11241, 88.75422593931211, 9.994459500577847, 0.0
11242, 90.00481166859552, 11.24411646379918, 0.0
11243, 88.75741507253866, 12.49092835994396, 0.0
11244, 88.75582050592539, 11.24269393026091, 0.0
11245, 90.00745837723859, 13.74122824836705, 0.0
11246, 87.5105609010653, 13.73709733088699, 0.0
11247, 88.75900963915196, 13.73916278962702, 0.0
11248, 86.26211216297865, 13.73503187214696, 0.0
11249, 12.16399234639207, 141.3771403841187, 0.0
11250, 10.97336246271335, 142.5964360652708, 0.0
11251, 10.96264918833864, 141.3442200812287, 0.0
11252, 13.37855950809058, 142.6601056047473, 0.0
11253, 13.3653355044455, 141.4100606870087, 0.0
11254, 12.18792962441187, 143.8794012858994, 0.0
11255, 13.39178351173567, 143.9101505224858, 0.0
11256, 10.98407573708807, 143.848652049313, 0.0
11257, 33.75700365661461, 197.5174187609567, 0.0
11258, 32.50931532941734, 196.2744701974219, 0.0
11259, 33.76050548480242, 196.2761281414351, 0.0
11260, 32.50310510995866, 198.758156732474, 0.0
11261, 33.75350182842705, 198.7587093804784, 0.0
11262, 30.00231167302477, 198.7570514364652, 0.0
11263, 31.25541678276219, 197.5152081689392, 0.0
11264, 31.25270839149125, 198.7576040844696, 0.0
11265, 30.006935018648, 196.2711543093956, 0.0
11266, 31.25812517403267, 196.2728122534087, 0.0
11267, 97.51613930423434, 166.2546039439983, 0.0
11268, 96.27251919294892, 167.5065092888398, 0.0
11269, 96.27420895635153, 166.2569059160892, 0.0
11270, 98.75750639764965, 167.5021697628295, 0.0
11271, 98.75806965211717, 166.2523019719073, 0.0
11272, 98.75637988871458, 170.0019053446706, 0.0
11273, 97.51388628636423, 168.7540751076699, 0.0
11274, 98.75694314318211, 168.75203755375, 0.0
11275, 96.26913966614373, 170.0057160343399, 0.0
11276, 96.27082942954634, 168.7561126615898, 0.0
11277, 84.09993211630444, 152.5930879718464, 0.0
11278, 82.9169317202995, 151.3666007990143, 0.0
11279, 84.11838974107722, 151.3415755568324, 0.0
11280, 82.87702343178016, 153.8692585334379, 0.0
11281, 84.08147449153168, 153.8446003868604, 0.0
11282, 81.69402303577522, 152.6427713606058, 0.0
11283, 81.67257237202865, 153.8939166800155, 0.0
11284, 81.7154736995218, 151.3916260411962, 0.0
11285, 26.23825006435988, 4.983460761591308, 0.0
11286, 27.48190928429214, 6.225860450583556, 0.0
11287, 26.22630055281908, 7.47127567135957, 0.0
11288, 26.23227530858948, 6.227368216475439, 0.0
11289, 28.73829810969578, 4.981599742677291, 0.0
11290, 28.7247884102938, 7.467105626706055, 0.0
11291, 28.73154325999479, 6.224352684691673, 0.0
11292, 27.46917967882074, 8.712520847482068, 0.0
11293, 28.71803356059281, 8.709858568720437, 0.0
11294, 26.22032579704867, 8.715183126243701, 0.0
11295, 4.982392442877567, 18.73573435915515, 0.0
11296, 6.227342393628593, 17.48056657261975, 0.0
11297, 7.474791995361792, 18.72955335608771, 0.0
11298, 6.22859221911968, 18.73264385762143, 0.0
11299, 4.978833999228938, 16.23081946619473, 0.0
11300, 6.22484274264642, 14.9764120026164, 0.0
11301, 7.473351137046075, 16.22615910904142, 0.0
11302, 6.226092568137506, 16.22848928761807, 0.0
11303, 8.720418673130013, 14.97251196842013, 0.0
11304, 8.720800738779275, 17.47514589250938, 0.0
11305, 8.720609705954644, 16.22382893046475, 0.0
11306, 8.720991771603904, 18.726462854554, 0.0
11307, 74.2117330479614, 162.7817771232391, 0.0
11308, 73.0256213391252, 161.5773425058645, 0.0
11309, 74.24699590493054, 161.5425877093917, 0.0
11310, 72.94781591300162, 164.0532300811879, 0.0
11311, 74.17647019099226, 164.0209665370865, 0.0
11312, 71.7617042041654, 162.8487954638133, 0.0
11313, 71.71916163501098, 164.0854936252893, 0.0
11314, 71.80424677331985, 161.6120973023373, 0.0
11315, 8.72717509226173, 177.5086463213616, 0.0
11316, 7.478922928543573, 176.2554815801249, 0.0
11317, 8.7238879192244, 176.2577861284318, 0.0
11318, 8.733749438336394, 180.0103667072213, 0.0
11319, 7.484254636744428, 178.757110098793, 0.0
11320, 8.730462265299062, 178.7595065142914, 0.0
11321, 6.240091543353318, 180.0054820090328, 0.0
11322, 4.991839379635159, 178.7523172677961, 0.0
11323, 6.236002473026272, 177.5039453575563, 0.0
11324, 6.238047008189795, 178.7547136832946, 0.0
11325, 4.988992947181924, 176.2508724835111, 0.0
11326, 6.233957937862749, 176.253177031818, 0.0
11327, 85.00708697270838, 191.2589835729502, 0.0
11328, 83.75592821948939, 192.5084483385488, 0.0
11329, 82.50849024613254, 191.2618731605333, 0.0
11330, 83.75778860942046, 191.2604283667418, 0.0
11331, 85.0037058992119, 193.7555491269915, 0.0
11332, 83.75220743962726, 195.0044882821628, 0.0
11333, 82.50442975990475, 193.75738749372, 0.0
11334, 83.75406782955832, 193.7564683103558, 0.0
11335, 81.25259159395449, 195.0058010384639, 0.0
11336, 81.25699178654791, 192.5108123157045, 0.0
11337, 81.25479169025121, 193.7583066770842, 0.0
11338, 81.25919188284462, 191.2633179543249, 0.0
11339, 96.257448256181, 24.99410876002605, 0.0
11340, 97.50596759303353, 26.24593249799287, 0.0
11341, 96.26045452291962, 27.49368873405331, 0.0
11342, 96.2589513895503, 26.24389874703968, 0.0
11343, 98.75248275206033, 24.99803625327895, 0.0
11344, 98.7534848409732, 27.49789624461316, 0.0
11345, 98.75298379651677, 26.247966248946, 0.0
11346, 97.50797177085929, 28.74565248067344, 0.0
11347, 98.75398588542964, 28.74782624028004, 0.0
11348, 96.26195765628891, 28.74347872106685, 0.0
11349, 70.00403578713224, 196.2622810556411, 0.0
11350, 68.75283532526606, 197.5089947414664, 0.0
11351, 67.50447018844423, 196.264703168758, 0.0
11352, 68.75425298778823, 196.2634921121995, 0.0
11353, 70.00134526251952, 198.7540936852137, 0.0
11354, 67.50149006296826, 198.7549010562527, 0.0
11355, 68.75141766274437, 198.7544973707332, 0.0
11356, 66.25312492614675, 197.5106094835444, 0.0
11357, 66.25156246319315, 198.7553047417722, 0.0
11358, 66.2546873891004, 196.2659142253165, 0.0
11359, 2.481347791025104, 33.7440011663855, 0.0
11360, 3.724296083483444, 32.49156880374464, 0.0
11361, 3.722021686537655, 33.74100174945898, 0.0
11362, 1.241432027827815, 32.49718960140048, 0.0
11363, 1.240673895512552, 33.74700058331279, 0.0
11364, 1.242948292458341, 29.99756763758118, 0.0
11365, 2.484380320286156, 31.24475723876088, 0.0
11366, 1.242190160143078, 31.2473786194909, 0.0
11367, 3.728844877375022, 29.99270291231723, 0.0
11368, 3.726570480429233, 31.24213585803093, 0.0
11369, 34.85943678331444, 148.7313086394195, 0.0
11370, 36.03448532786301, 150.0219929522287, 0.0
11371, 34.85108027979695, 149.9125151502112, 0.0
11372, 36.05830071434433, 147.6939310500836, 0.0
11373, 34.86779328683193, 147.5501021286277, 0.0
11374, 38.43931556936913, 147.9815888929953, 0.0
11375, 37.2333492588929, 148.9846153628928, 0.0
11376, 37.24880814185673, 147.8377599715394, 0.0
11377, 38.40129542399512, 150.2409485562637, 0.0
11378, 37.21789037592907, 150.1314707542462, 0.0
11379, 14.97306381788695, 8.722486586013343, 0.0
11380, 16.22680879280624, 7.475751575545278, 0.0
11381, 17.47555271796876, 8.72428441644626, 0.0
11382, 16.22430826792786, 8.723385501229801, 0.0
11383, 14.97728289494705, 6.226434344461379, 0.0
11384, 16.231809842563, 4.980483724176233, 0.0
11385, 17.48133574042219, 6.229800955260131, 0.0
11386, 16.22930931768462, 6.228117649860755, 0.0
11387, 18.7366446607348, 4.984634725157903, 0.0
11388, 18.73007966558472, 7.478333796161113, 0.0
11389, 18.73336216315976, 6.231484260659508, 0.0
11390, 18.72679716800967, 8.725183331662718, 0.0
11391, 81.25284836159858, 4.994497661721624, 0.0
11392, 82.50418645706824, 6.243120530580573, 0.0
11393, 81.25677104443017, 7.489295413164796, 0.0
11394, 81.25480970301437, 6.24189653744321, 0.0
11395, 83.75213190859449, 4.99619206049733, 0.0
11396, 85.00293996517597, 6.245568516855299, 0.0
11397, 83.7549945136497, 7.492496986938539, 0.0
11398, 83.7535632111221, 6.244344523717936, 0.0
11399, 85.00527253134298, 8.742627030795525, 0.0
11400, 82.50757910101164, 8.738671869522763, 0.0
11401, 83.75642581617731, 8.740649450159145, 0.0
11402, 81.25873238584596, 8.736694288886383, 0.0
11403, 32.49124582922923, 3.732762898226514, 0.0
11404, 33.74416529610035, 2.487595589921443, 0.0
11405, 33.74124794422462, 3.731393384882164, 0.0
11406, 29.99124159923836, 3.735501924915212, 0.0
11407, 31.2441624761088, 2.489421607713909, 0.0
11408, 31.2412437142338, 3.734132411570863, 0.0
11409, 29.99708053298762, 1.245167308305071, 0.0
11410, 32.49708194298, 1.244254299408838, 0.0
11411, 31.24708123798376, 1.244710803856954, 0.0
11412, 33.74708264797619, 1.243797794960722, 0.0
11413, 24.991169531241, 3.738293453286237, 0.0
11414, 26.24412503212076, 2.491730380795654, 0.0
11415, 27.49120556523964, 3.736897689100725, 0.0
11416, 26.24118754824032, 3.737595571193481, 0.0
11417, 24.99705651033912, 1.246097817762079, 0.0
11418, 27.49706852166326, 1.245632563033575, 0.0
11419, 26.24706251600131, 1.245865190397827, 0.0
11420, 28.74414905478222, 2.490799871338646, 0.0
11421, 28.74707452732544, 1.245399935669323, 0.0
11422, 28.741223582239, 3.736199807007968, 0.0
11423, 32.13366918876524, 169.2169735859038, 0.0
11424, 33.32363600666974, 168.0282022795219, 0.0
11425, 33.3794691616361, 169.2528173388105, 0.0
11426, 30.83916665228128, 167.952830933093, 0.0
11427, 30.88786921589439, 169.181129832997, 0.0
11428, 32.02913347018578, 166.7640596267111, 0.0
11429, 30.79046408866817, 166.7245320331889, 0.0
11430, 33.26780285170339, 166.8035872202334, 0.0
11431, 91.25650062126479, 187.5056187256844, 0.0
11432, 92.50405752342603, 188.7537599913413, 0.0
11433, 91.2534939089222, 190.0039263692434, 0.0
11434, 91.2549972650935, 188.7547725474639, 0.0
11435, 92.50645333010748, 186.2550340098367, 0.0
11436, 91.25800397743608, 186.2564649039049, 0.0
11437, 95.00335203545029, 186.2521722217003, 0.0
11438, 93.75401023226873, 187.5031752754936, 0.0
11439, 93.75490268277889, 186.2536031157684, 0.0
11440, 95.00217804009111, 188.751734879096, 0.0
11441, 93.75222533124841, 190.0023195949437, 0.0
11442, 93.75311778175858, 188.7527474352187, 0.0
11443, 75.00354673424317, 196.2585665712335, 0.0
11444, 73.75244599837183, 197.5063301282236, 0.0
11445, 72.50379126068705, 196.2604238134373, 0.0
11446, 73.75366899746513, 196.2594951923354, 0.0
11447, 75.00118224486616, 198.7528555237445, 0.0
11448, 72.50126375369088, 198.7534746044791, 0.0
11449, 73.75122299927807, 198.7531650641118, 0.0
11450, 71.25260901600743, 197.5075682896928, 0.0
11451, 71.25130450810488, 198.7537841448464, 0.0
11452, 71.25391352390965, 196.2613524345392, 0.0
11453, 8.743619813979809, 185.0079701119153, 0.0
11454, 7.492940046548268, 183.7566261364706, 0.0
11455, 8.7386846261581, 182.5091684095682, 0.0
11456, 8.741152220068955, 183.7585692607418, 0.0
11457, 6.246273316252337, 185.0044166799217, 0.0
11458, 4.996515699506895, 183.7527398879284, 0.0
11459, 6.243182429802827, 182.5049493444773, 0.0
11460, 6.244727873027582, 183.7546830121995, 0.0
11461, 4.994346963743483, 181.2529397359352, 0.0
11462, 7.48892700941266, 181.2574916175749, 0.0
11463, 6.241636986578072, 181.2552156767551, 0.0
11464, 8.736217032247248, 181.2597675583947, 0.0
11465, 36.26484147432508, 187.63825312694, 0.0
11466, 37.52380005309033, 188.8727192742426, 0.0
11467, 36.26907975524114, 188.8678817765946, 0.0
11468, 37.51719266643529, 186.4153249313059, 0.0
11469, 36.26060319340904, 186.4086244772854, 0.0
11470, 38.77615124520054, 187.6497910786085, 0.0
11471, 38.77378213946156, 186.4220253853264, 0.0
11472, 38.77852035093952, 188.8775567718905, 0.0
11473, 90.00338952343839, 191.2540260112932, 0.0
11474, 88.7533372458283, 192.5043082871376, 0.0
11475, 87.50523824807338, 191.2565047921217, 0.0
11476, 88.75431388575588, 191.2552654017074, 0.0
11477, 90.00191217479701, 193.752618521093, 0.0
11478, 88.75138396597315, 195.0023940579978, 0.0
11479, 87.50280903700445, 193.7540838240423, 0.0
11480, 88.75236060590072, 193.7533511725677, 0.0
11481, 86.25180489696682, 195.0033526220074, 0.0
11482, 86.25471003924953, 192.5062803290264, 0.0
11483, 86.25325746810816, 193.7548164755169, 0.0
11484, 86.25616261039089, 191.257744182536, 0.0
11485, 2.486815684252567, 28.74501640648816, 0.0
11486, 3.731602175382679, 27.49234630694362, 0.0
11487, 3.730223526378851, 28.74252460963042, 0.0
11488, 1.243867391794226, 27.49744876911062, 0.0
11489, 1.243407842126284, 28.74750820334569, 0.0
11490, 1.244786491130112, 24.99732990064197, 0.0
11491, 2.488653882924338, 26.24477866956671, 0.0
11492, 1.244326941462169, 26.24738933487557, 0.0
11493, 3.734359473390335, 24.99198970157065, 0.0
11494, 3.732980824386507, 26.24216800425714, 0.0
11495, 13.74125658041292, 187.5160500965294, 0.0
11496, 12.49040164095065, 186.2651197651276, 0.0
11497, 13.73873705833552, 186.2683831915094, 0.0
11498, 13.74629562456774, 190.0113839065694, 0.0
11499, 12.49471949927878, 188.7612396947891, 0.0
11500, 13.74377610249033, 188.7637170015494, 0.0
11501, 11.24746123231795, 190.0072154126701, 0.0
11502, 9.996606292855676, 188.7562850812683, 0.0
11503, 11.24386455981651, 187.5103093633873, 0.0
11504, 11.24566289606723, 188.7587623880287, 0.0
11505, 9.993730806180922, 186.2585929123641, 0.0
11506, 11.24206622356579, 186.2618563387459, 0.0
11507, 4.975036957742971, 13.72608885425031, 0.0
11508, 6.221876795731995, 12.47281456533021, 0.0
11509, 7.471682580635444, 13.7231377136963, 0.0
11510, 6.223359769189208, 13.72461328397331, 0.0
11511, 4.971001318419665, 11.22154252332188, 0.0
11512, 6.21891084881757, 9.969217128044033, 0.0
11513, 7.4697863261299, 11.22048917005237, 0.0
11514, 6.220393822274783, 11.22101584668712, 0.0
11515, 8.718765548936686, 9.969112668416766, 0.0
11516, 8.71959211103335, 12.47081231841845, 0.0
11517, 8.719178829985019, 11.21996249341761, 0.0
11518, 8.720005392081681, 13.72166214341929, 0.0
11519, 60.09500584064831, 54.41212513127705, 0.0
11520, 59.09125443675283, 55.48316500155015, 0.0
11521, 57.86958187550459, 54.19242142889121, 0.0
11522, 58.98229385807645, 54.30227328008414, 0.0
11523, 62.32042980579205, 54.63182883366289, 0.0
11524, 61.31101836492242, 55.71627776734373, 0.0
11525, 61.20771782322018, 54.52197698246998, 0.0
11526, 62.52137085222238, 57.03383946681814, 0.0
11527, 60.30726696102694, 56.78731763761682, 0.0
11528, 61.41431890662466, 56.91057855221749, 0.0
11529, 58.0931630698315, 56.54079580841551, 0.0
11530, 59.20021501542922, 56.66405672301616, 0.0
11531, 91.2601165708952, 17.48899620805793, 0.0
11532, 92.50939326250978, 18.74009220764548, 0.0
11533, 91.26154489621776, 18.73770667259162, 0.0
11534, 91.25725992025012, 14.99157527899055, 0.0
11535, 92.50695649346333, 16.24227501410189, 0.0
11536, 91.25868824557266, 16.24028574352424, 0.0
11537, 93.75421629763008, 14.99515755566966, 0.0
11538, 95.00349298924465, 16.24625355525721, 0.0
11539, 93.7562331850779, 17.49337101368945, 0.0
11540, 93.75522474135398, 16.24426428467955, 0.0
11541, 95.00508999509383, 18.74486327775321, 0.0
11542, 93.7572416288018, 18.74247774269935, 0.0
11543, 9.969356053695023, 8.719569712593605, 0.0
11544, 11.2213077453996, 7.471174356247397, 0.0
11545, 12.47120993579098, 8.721028149303475, 0.0
11546, 11.220282994743, 8.720298930948541, 0.0
11547, 9.97068236309258, 6.220588260574546, 0.0
11548, 11.22335724671279, 4.972925206845112, 0.0
11549, 12.47398262901982, 6.223511302517963, 0.0
11550, 11.2223324960562, 6.222049781546254, 0.0
11551, 13.72738070455567, 4.976580551405302, 0.0
11552, 13.7238848194112, 7.47336509557404, 0.0
11553, 13.72563276198343, 6.22497282348967, 0.0
11554, 13.72213687683897, 8.721757367658407, 0.0
11555, 48.73455494335136, 31.67364711807613, 0.0
11556, 47.36976158149211, 30.47619146935973, 0.0
11557, 48.66882991577479, 30.4663074045866, 0.0
11558, 47.49977622416077, 32.90472827234491, 0.0
11559, 48.80027997092793, 32.88098683156566, 0.0
11560, 46.13498286230152, 31.7072726236285, 0.0
11561, 46.19927247739359, 32.92846971312416, 0.0
11562, 46.07069324720943, 30.48607553413285, 0.0
11563, 57.53047858502815, 16.02893888867966, 0.0
11564, 56.27509463127871, 17.23822210988823, 0.0
11565, 56.26941963860516, 16.02032578434529, 0.0
11566, 58.80099306782253, 17.25784535320867, 0.0
11567, 58.79153753145114, 16.03755199301403, 0.0
11568, 57.54560911407309, 18.46712857441723, 0.0
11569, 58.81044860419392, 18.47813871340329, 0.0
11570, 56.28076962395225, 18.45611843543116, 0.0
11571, 80.0020877533741, 196.2548430624608, 0.0
11572, 78.75163499911135, 197.5038492931026, 0.0
11573, 77.50281724380875, 196.2567048168471, 0.0
11574, 78.75245249859142, 196.255773939654, 0.0
11575, 80.0006959178861, 198.7516143541536, 0.0
11576, 77.50093908137644, 198.752234938949, 0.0
11577, 78.75081749963128, 198.7519246465513, 0.0
11578, 76.25212132607362, 197.5050904626935, 0.0
11579, 76.25106066312229, 198.7525452313467, 0.0
11580, 76.25318198902596, 196.2576356940403, 0.0
11581, 19.99179655234406, 3.740032669236554, 0.0
11582, 21.24442653134812, 2.493065243499317, 0.0
11583, 22.49148304179257, 3.739163061261396, 0.0
11584, 21.24163979706831, 3.739597865248975, 0.0
11585, 19.99726551739077, 1.246677556412185, 0.0
11586, 22.49716101386507, 1.246387687087132, 0.0
11587, 21.24721326562796, 1.246532621749658, 0.0
11588, 23.74421752430944, 2.492485504849211, 0.0
11589, 23.74710876210202, 1.246242752424605, 0.0
11590, 23.74132628651678, 3.738728257273816, 0.0
11591, 92.50487772202203, 13.74430430189264, 0.0
11592, 93.75295849119739, 12.49652710164121, 0.0
11593, 95.00229706680545, 13.74738035541823, 0.0
11594, 93.75358739441373, 13.74584232865543, 0.0
11595, 91.2550761790105, 12.49395727126915, 0.0
11596, 91.25616804963032, 13.74276627512985, 0.0
11597, 91.25289243777088, 9.996339263547753, 0.0
11598, 92.50315694818588, 11.24618007101772, 0.0
11599, 91.2539843083907, 11.24514826740845, 0.0
11600, 93.75170068476469, 9.997896647612759, 0.0
11601, 95.0015022277762, 11.24824367823625, 0.0
11602, 93.75232958798104, 11.24721187462698, 0.0
11603, 66.25291512285597, 2.486407180881334, 0.0
11604, 67.50436137950157, 3.731558027252313, 0.0
11605, 66.2543726843763, 3.729610771322001, 0.0
11606, 67.50145379304848, 1.243852675750771, 0.0
11607, 66.2514575613356, 1.243203590440667, 0.0
11608, 70.0014462564747, 1.245150846370978, 0.0
11609, 68.75290004969425, 2.489003522121749, 0.0
11610, 68.75145002476182, 1.244501761060875, 0.0
11611, 70.00433876975224, 3.735452539112935, 0.0
11612, 68.75435007462691, 3.733505283182624, 0.0
11613, 18.7479667059073, 192.5158143327049, 0.0
11614, 17.4967218252415, 191.2665955036915, 0.0
11615, 18.7467016314284, 191.2692649512884, 0.0
11616, 18.75049685486511, 195.0089130955378, 0.0
11617, 17.49910818599675, 193.7605203155659, 0.0
11618, 18.74923178038621, 193.7623637141213, 0.0
11619, 16.25010587788366, 195.0060523474683, 0.0
11620, 14.99886099721786, 193.7568335184549, 0.0
11621, 16.24786330533096, 192.5113014865525, 0.0
11622, 16.24898459160731, 193.7586769170103, 0.0
11623, 14.99676221286771, 191.2612566084977, 0.0
11624, 16.24674201905461, 191.2639260560946, 0.0
11625, 47.34359383329519, 169.3980404569393, 0.0
11626, 48.59441340738044, 168.1212070701293, 0.0
11627, 49.92719134465347, 169.3909767420223, 0.0
11628, 48.63539258897433, 169.3945085994808, 0.0
11629, 45.99234414048351, 168.1416020385568, 0.0
11630, 46.05179507761605, 169.4015723143978, 0.0
11631, 47.24316371456876, 166.8647686517468, 0.0
11632, 45.93289320335096, 166.8816317627158, 0.0
11633, 49.86370473700433, 166.8310424298086, 0.0
11634, 48.55343422578654, 166.8479055407777, 0.0
11635, 17.29656976528102, 166.3391327704044, 0.0
11636, 16.08584369186693, 167.5639006, 0.0
11637, 16.07068527429448, 166.3163604824009, 0.0
11638, 18.54093736825251, 167.6083687843973, 0.0
11639, 18.52245425626757, 166.3619050584078, 0.0
11640, 17.33021129483841, 168.833136613993, 0.0
11641, 18.55942048023746, 168.8548325103868, 0.0
11642, 16.10100210943937, 168.8114407175991, 0.0
11643, 32.47564990713714, 183.921364907103, 0.0
11644, 33.71656764195396, 182.7078620776424, 0.0
11645, 33.7305605096973, 183.9340282125071, 0.0
11646, 31.20550018058846, 182.6795479521302, 0.0
11647, 31.22073930457698, 183.9087016016989, 0.0
11648, 32.44641791540528, 181.4660451226696, 0.0
11649, 31.19026105659994, 181.4503943025616, 0.0
11650, 33.70257477421061, 181.4816959427777, 0.0
11651, 87.50411772898886, 8.744408152539949, 0.0
11652, 88.75285471631148, 7.496137926246474, 0.0
11653, 90.00296292663472, 8.746189274284372, 0.0
11654, 88.75354032781179, 8.745298713412161, 0.0
11655, 86.25368907094347, 7.494777824632433, 0.0
11656, 86.25469513016591, 8.743517591667736, 0.0
11657, 86.2516769524986, 4.997298290561824, 0.0
11658, 87.5024260582661, 6.246507598338958, 0.0
11659, 86.25268301172105, 6.246038057597128, 0.0
11660, 88.75148349331084, 4.997816351915102, 0.0
11661, 90.00191215135624, 6.247446679822618, 0.0
11662, 88.75216910481117, 6.246977139080787, 0.0
11663, 6.227661895450819, 4.97760023878547, 0.0
11664, 7.473876876892531, 6.223865727591589, 0.0
11665, 6.223286372134194, 7.473408683414752, 0.0
11666, 4.977071390692482, 6.227143194608633, 0.0
11667, 6.225474133792506, 6.225504461100111, 0.0
11668, 8.72345097701118, 4.973265102638502, 0.0
11669, 8.721108262973932, 7.471188885527634, 0.0
11670, 8.722279619992555, 6.222226994083067, 0.0
11671, 7.470517758215595, 8.720731841350796, 0.0
11672, 8.719936905955308, 8.7201507769722, 0.0
11673, 4.971679462736169, 8.721893970107987, 0.0
11674, 6.221098610475881, 8.721312905729391, 0.0
11675, 93.81261081201457, 42.49485133008726, 0.0
11676, 92.57420029758903, 41.23641305023526, 0.0
11677, 93.80875755245881, 41.24286842153442, 0.0
11678, 92.58439081170465, 43.74029364746512, 0.0
11679, 93.81646407157032, 43.74683423864009, 0.0
11680, 91.34598029727911, 42.48185536761312, 0.0
11681, 91.35231755183898, 43.73375305629015, 0.0
11682, 91.33964304271923, 41.22995767893609, 0.0
11683, 2.490201194782903, 23.7445188265521, 0.0
11684, 3.736244110958373, 22.49156677791652, 0.0
11685, 3.735301792174354, 23.74177823974359, 0.0
11686, 1.245414703652791, 22.49718892607923, 0.0
11687, 1.245100597391451, 23.74725941336104, 0.0
11688, 1.24604291617547, 19.99704795151542, 0.0
11689, 2.491457619828261, 21.2442368774433, 0.0
11690, 1.245728809914131, 21.24711843879754, 0.0
11691, 3.738128748526411, 19.99114385426204, 0.0
11692, 3.737186429742391, 21.24135531608928, 0.0
11693, 3.735459915789939, 17.48745768453731, 0.0
11694, 2.489416999614469, 16.24040973315512, 0.0
11695, 3.732791083053467, 14.98377151481254, 0.0
11696, 3.734125499421703, 16.23561459967492, 0.0
11697, 2.491196221438783, 18.74286717964421, 0.0
11698, 3.736794332158174, 18.73930076939968, 0.0
11699, 1.245153305263313, 17.49581922826206, 0.0
11700, 1.245598110719392, 18.74643358988723, 0.0
11701, 1.244263694351156, 14.99459050500857, 0.0
11702, 1.244708499807234, 16.24520486663541, 0.0
11703, 71.25282675394112, 2.49118223974549, 0.0
11704, 72.5041414922269, 3.738094180123535, 0.0
11705, 71.25424013098957, 3.736773359618235, 0.0
11706, 72.50138049731066, 1.246031393374512, 0.0
11707, 71.25141337689259, 1.245591119872745, 0.0
11708, 75.00131473814221, 1.246911940378045, 0.0
11709, 73.75269523559497, 2.492943333752556, 0.0
11710, 73.75134761772654, 1.246471666876278, 0.0
11711, 75.00394421470011, 3.740735821134134, 0.0
11712, 73.7540428534635, 3.739415000628834, 0.0
11713, 85.00151152187439, 196.2528739280091, 0.0
11714, 83.75110371987171, 197.5022441410813, 0.0
11715, 82.5017996376246, 196.253858495235, 0.0
11716, 83.75165557974948, 196.2533662116221, 0.0
11717, 85.00050384069584, 198.7509579760031, 0.0
11718, 82.50059987929203, 198.7512861650783, 0.0
11719, 83.75055185999337, 198.7511220705406, 0.0
11720, 81.25129579704421, 197.5029005192319, 0.0
11721, 81.25064789858853, 198.7514502596159, 0.0
11722, 81.25194369549935, 196.2543507788479, 0.0
11723, 3.729764353560988, 12.48036176661148, 0.0
11724, 2.485500659209833, 11.23577126170061, 0.0
11725, 3.726737624068509, 9.976952018411012, 0.0
11726, 3.728250988814748, 11.22865689251125, 0.0
11727, 2.487518478871485, 13.73804442717371, 0.0
11728, 3.731277718307228, 13.73206664071201, 0.0
11729, 1.243254784520329, 12.49345392226224, 0.0
11730, 1.243759239435743, 13.7440222136359, 0.0
11731, 1.242245874689503, 9.992317339517706, 0.0
11732, 1.242750329604916, 11.24288563088943, 0.0
11733, 83.2787881941557, 83.53978129331074, 0.0
11734, 84.44103690467534, 82.272154429457, 0.0
11735, 84.44039993625645, 83.53619492412474, 0.0
11736, 82.11709927953652, 82.27265205088267, 0.0
11737, 82.11717645205493, 83.54336766249673, 0.0
11738, 83.27934799005615, 81.00502518702895, 0.0
11739, 82.11702210701807, 81.00193643926862, 0.0
11740, 84.44167387309423, 81.00811393478926, 0.0
11741, 76.25237293081445, 2.494574218358788, 0.0
11742, 77.50317457787378, 3.742986833942231, 0.0
11743, 76.25355939628695, 3.741861327538182, 0.0
11744, 77.50105819254169, 1.247662277980744, 0.0
11745, 76.25118646534204, 1.247287109179394, 0.0
11746, 80.00080164694312, 1.248412615583443, 0.0
11747, 78.75185983960168, 2.496074893564186, 0.0
11748, 78.75092991974331, 1.248037446782093, 0.0
11749, 80.00240494104811, 3.745237846750328, 0.0
11750, 78.75278975946094, 3.744112340346279, 0.0
11751, 97.51155730020571, 171.2534721516532, 0.0
11752, 96.26553223447337, 172.5047004207774, 0.0
11753, 96.26733595030855, 171.2552082275587, 0.0
11754, 98.75517741149113, 172.5015668068249, 0.0
11755, 98.75577865010285, 171.2517360757474, 0.0
11756, 98.75397493426767, 175.0012282689806, 0.0
11757, 97.50915234575879, 173.7527950759496, 0.0
11758, 98.75457617287938, 173.7513975379034, 0.0
11759, 96.26192480280302, 175.0036848072153, 0.0
11760, 96.2637285186382, 173.7541926139963, 0.0
11761, 92.50236206800514, 191.2526761650672, 0.0
11762, 91.25225768252133, 192.502775807117, 0.0
11763, 91.25287579572176, 191.2533510881802, 0.0
11764, 95.00133461257187, 191.2513263188411, 0.0
11765, 93.7514713493286, 192.5016828889646, 0.0
11766, 93.7518483402885, 191.2520012419541, 0.0
11767, 95.00082175289256, 193.7509465409356, 0.0
11768, 93.75071736740878, 195.0010461829854, 0.0
11769, 92.5013669638448, 193.7517825310144, 0.0
11770, 93.7510943583687, 193.751364535975, 0.0
11771, 91.25102145612047, 195.0016252449905, 0.0
11772, 91.2516395693209, 193.7522005260537, 0.0
11773, 90.000880125375, 196.2514360819947, 0.0
11774, 88.75069198302603, 197.5011970289989, 0.0
11775, 87.50119582362419, 196.252155005002, 0.0
11776, 88.75103797449958, 196.2517955434984, 0.0
11777, 90.00029337517236, 198.7504786939982, 0.0
11778, 87.50039860793262, 198.7507183350007, 0.0
11779, 88.75034599155083, 198.7505985144994, 0.0
11780, 86.25090244853175, 197.5016763110037, 0.0
11781, 86.25045122431324, 198.7508381555019, 0.0
11782, 86.2513536727493, 196.2525144665055, 0.0
11783, 91.25114766626493, 4.998417676401961, 0.0
11784, 92.50125556692662, 6.248349466554199, 0.0
11785, 91.25202005201791, 7.497378469974857, 0.0
11786, 91.25158385914142, 6.247898073188408, 0.0
11787, 93.75066947136084, 4.9991022640224, 0.0
11788, 95.00059898249698, 6.24925225328578, 0.0
11789, 93.75118507806276, 7.49849945581758, 0.0
11790, 93.7509272747118, 6.24880085991999, 0.0
11791, 95.00093619967339, 8.748867644192103, 0.0
11792, 92.50194956315406, 8.747528459238238, 0.0
11793, 93.75144288141372, 8.748198051715171, 0.0
11794, 91.2524562448944, 8.746858866761306, 0.0
11795, 97.50712889106629, 176.2523494589697, 0.0
11796, 96.25946187039585, 177.5033635698242, 0.0
11797, 96.26069333659943, 176.2535241885197, 0.0
11798, 98.75315395679863, 177.5011211898587, 0.0
11799, 98.75356444553316, 176.2511747294196, 0.0
11800, 98.75233297932957, 180.0010141107383, 0.0
11801, 97.5054869361282, 178.7521353007137, 0.0
11802, 98.7527434680641, 178.7510676502985, 0.0
11803, 96.2569989379887, 180.0030423324336, 0.0
11804, 96.25823040419229, 178.7532029511289, 0.0
11805, 14.98454432509285, 3.733806167764048, 0.0
11806, 16.24090492124829, 2.490241862088117, 0.0
11807, 17.48817043871845, 3.736919418500301, 0.0
11808, 16.23635738190565, 3.735362793132175, 0.0
11809, 14.99484810832433, 1.244602055921349, 0.0
11810, 17.49605681285755, 1.245639806166767, 0.0
11811, 16.24545246059098, 1.245120931044058, 0.0
11812, 18.74332233032771, 2.492317362578952, 0.0
11813, 18.74666116512423, 1.246158681289476, 0.0
11814, 18.73998349553126, 3.738476043868427, 0.0
11815, 9.978509138333916, 3.728323150923762, 0.0
11816, 11.23667862333502, 2.486462603422556, 0.0
11817, 12.48152673171391, 3.731064659343905, 0.0
11818, 11.23001793502391, 3.729693905133834, 0.0
11819, 9.992836379419025, 1.242774383641254, 0.0
11820, 12.49384224387325, 1.243688219781302, 0.0
11821, 11.24333931164614, 1.243231301711278, 0.0
11822, 13.73869035225109, 2.488290275702651, 0.0
11823, 13.74434517609878, 1.244145137851326, 0.0
11824, 13.73303552840338, 3.732435413553977, 0.0
11825, 96.2544163735138, 19.9956261042317, 0.0
11826, 97.50344956278707, 21.24683117875972, 0.0
11827, 96.2559323148474, 22.49486743212883, 0.0
11828, 96.2551743441806, 21.24524676818027, 0.0
11829, 98.7514721245046, 19.99854203469268, 0.0
11830, 98.75197743828247, 22.49828914398566, 0.0
11831, 98.75172478139353, 21.24841558933919, 0.0
11832, 97.5044601903428, 23.74632539735487, 0.0
11833, 98.7522300951714, 23.74816269863226, 0.0
11834, 96.2566902855142, 23.74448809607744, 0.0
11835, 97.50399184813558, 181.2518200278042, 0.0
11836, 96.25497660641805, 182.5024177510822, 0.0
11837, 96.25598777220338, 181.2527300417579, 0.0
11838, 98.75165886880602, 182.5008059169628, 0.0
11839, 98.7519959240678, 181.2509100138501, 0.0
11840, 98.75098475828247, 185.0005977231891, 0.0
11841, 97.50264362708849, 183.7514036402413, 0.0
11842, 98.75132181354424, 183.7507018200762, 0.0
11843, 96.25295427484741, 185.0017931697313, 0.0
11844, 96.25396544063274, 183.7521054604067, 0.0
11845, 96.25207377832803, 187.5014651627814, 0.0
11846, 97.50108902004555, 188.7508674395171, 0.0
11847, 96.25119328180864, 190.0011371558317, 0.0
11848, 96.25163353006833, 188.7513011593065, 0.0
11849, 97.50167601772515, 186.2510861108124, 0.0
11850, 96.25251402658772, 186.2516291662564, 0.0
11851, 98.75069125944268, 187.5004883875479, 0.0
11852, 98.75083800886257, 186.2505430553687, 0.0
11853, 98.75039776060288, 190.0003790519075, 0.0
11854, 98.75054451002278, 188.7504337197273, 0.0
11855, 20.75692451652241, 42.239434168685, 0.0
11856, 21.9276109546761, 43.44965550731681, 0.0
11857, 20.73387520304294, 43.48837074620032, 0.0
11858, 21.97716010022493, 40.94957402628732, 0.0
11859, 20.77997383000188, 40.99049759116968, 0.0
11860, 23.14784653837862, 42.15979536491913, 0.0
11861, 23.17434637044798, 40.90865046140497, 0.0
11862, 23.12134670630926, 43.41094026843329, 0.0
11863, 3.730781570035744, 7.480888936781664, 0.0
11864, 2.488535695346241, 6.23857159732613, 0.0
11865, 3.734825516002979, 4.984825855153098, 0.0
11866, 3.732803543019362, 6.232857395967383, 0.0
11867, 2.485839731368085, 8.735946985084688, 0.0
11868, 3.728759597052127, 8.728920477596336, 0.0
11869, 1.243593856678581, 7.493629645628372, 0.0
11870, 1.242919865684042, 8.742973492572613, 0.0
11871, 1.24494183866766, 4.994941951741384, 0.0
11872, 1.24426784767312, 6.244285798684963, 0.0
11873, 95.00042399229858, 196.2505674889871, 0.0
11874, 93.75035868372659, 197.5005230914927, 0.0
11875, 92.50065205883679, 196.251001785491, 0.0
11876, 93.75053802556768, 196.2507846372391, 0.0
11877, 95.00014133078987, 198.7501891629957, 0.0
11878, 92.50021735298112, 198.750333928497, 0.0
11879, 93.75017934188597, 198.7502615457464, 0.0
11880, 91.25051072809131, 197.5008126224952, 0.0
11881, 91.2502553640768, 198.7504063112476, 0.0
11882, 91.25076609210589, 196.2512189337428, 0.0
11883, 96.25202086474005, 14.99771152049196, 0.0
11884, 97.50174649462232, 16.24812677759657, 0.0
11885, 96.25321861912693, 17.49666881236182, 0.0
11886, 96.25261974193347, 16.24719016642689, 0.0
11887, 98.75067362158002, 14.99923717345747, 0.0
11888, 98.75107287304232, 17.49888960407502, 0.0
11889, 98.75087324731118, 16.24906338876628, 0.0
11890, 97.50254499754692, 18.7474316388403, 0.0
11891, 98.75127249877346, 18.74871581938385, 0.0
11892, 96.25381749632038, 18.74614745829676, 0.0
11893, 4.984825515997917, 3.734825855144217, 0.0
11894, 6.238830947712927, 2.488800119392735, 0.0
11895, 7.481667327165828, 3.73157450303399, 0.0
11896, 6.233246421581873, 3.733200179089103, 0.0
11897, 4.994941838652476, 1.244941951714739, 0.0
11898, 7.493889109035484, 1.243858167677997, 0.0
11899, 6.244415473843783, 1.244400059696368, 0.0
11900, 8.736725488488563, 2.486632551319251, 0.0
11901, 8.743362744227259, 1.243316275659625, 0.0
11902, 8.730088232749871, 3.729948826978876, 0.0
11903, 20.84310202035446, 160.2166077578006, 0.0
11904, 22.08003085894003, 161.4935524590999, 0.0
11905, 20.89550158650345, 162.6959311282877, 0.0
11906, 20.86930180342896, 161.4562694430441, 0.0
11907, 23.25857425865767, 160.2916940122506, 0.0
11908, 23.32294557024455, 162.7699769380608, 0.0
11909, 23.29075991445111, 161.5308354751557, 0.0
11910, 22.13841629780796, 163.9723556072485, 0.0
11911, 23.35513122603799, 164.0091184009659, 0.0
11912, 20.92170136957794, 163.9355928135312, 0.0
11913, 97.50066730628593, 191.2506631593963, 0.0
11914, 96.25080863704916, 192.5008523224057, 0.0
11915, 96.2510009594289, 191.2509947391187, 0.0
11916, 98.75026954568305, 192.5002841074405, 0.0
11917, 98.75033365314296, 191.2503315796733, 0.0
11918, 98.75014133076323, 195.0001891629752, 0.0
11919, 97.50041087644628, 193.7504732704504, 0.0
11920, 98.75020543822313, 193.7502366352075, 0.0
11921, 96.25042399228968, 195.0005674889803, 0.0
11922, 96.25061631466941, 193.750709905693, 0.0
11923, 98.75007066538606, 197.5000945814882, 0.0
11924, 97.50021199614929, 196.2502837444835, 0.0
11925, 98.75010599807464, 196.2501418722311, 0.0
11926, 97.50007066539493, 198.7500945814946, 0.0
11927, 98.75003533269722, 198.7500472907444, 0.0
11928, 96.25021199615816, 197.5002837444904, 0.0
11929, 96.2501059980924, 198.7501418722452, 0.0
11930, 96.25031799422392, 196.2504256167354, 0.0
11931, 81.2514241807485, 2.497248830860812, 0.0
11932, 82.50186760129897, 3.746508645832108, 0.0
11933, 81.25213627117354, 3.745873246291218, 0.0
11934, 82.50062253370383, 1.248836215277369, 0.0
11935, 81.250712090323, 1.248624415430406, 0.0
11936, 85.00044342046158, 1.249259814971296, 0.0
11937, 83.7510659542533, 2.498096030248665, 0.0
11938, 83.75053297708294, 1.249048015124333, 0.0
11939, 85.00133026154884, 3.747779444913888, 0.0
11940, 83.7515989314239, 3.747144045372998, 0.0
11941, 1.2474709193314, 2.497470975869498, 0.0
11942, 2.492412757999059, 3.742412927585033, 0.0
11943, 1.246206378999529, 3.746206463804951, 0.0
11944, 2.497470919326539, 1.247470975861412, 0.0
11945, 1.248735459663267, 1.248735487935055, 0.0
11946, 3.742412757993998, 2.492412927576151, 0.0
11947, 3.746206378989577, 1.246206463788076, 0.0
11948, 3.738619136998488, 3.738619391364625, 0.0
11949, 86.25083847621195, 2.498649145280912, 0.0
11950, 87.50118516716171, 3.748167990928847, 0.0
11951, 86.25125771435529, 3.747973717921368, 0.0
11952, 87.50039505567567, 1.249389330309616, 0.0
11953, 86.25041923806918, 1.249324572640456, 0.0
11954, 90.00034669088822, 1.249518845647935, 0.0
11955, 88.75074174662491, 2.498908175957551, 0.0
11956, 88.7503708732811, 1.249454087978775, 0.0
11957, 90.00104007277406, 3.748556536943806, 0.0
11958, 88.75111261996787, 3.748362263936326, 0.0
11959, 96.25142473546812, 12.49835901260765, 0.0
11960, 97.50114853340273, 13.74869017768139, 0.0
11961, 96.25172280010409, 13.74803526654981, 0.0
11962, 96.2508286061962, 9.999006504723825, 0.0
11963, 97.5007511138881, 11.24912183909522, 0.0
11964, 96.25112667083215, 11.24868275866574, 0.0
11965, 98.7502762020654, 9.999668834880948, 0.0
11966, 98.7504749118227, 12.49945300416846, 0.0
11967, 98.75037555694405, 11.24956091952474, 0.0
11968, 98.75057426670136, 13.74934508881293, 0.0
11969, 91.25057383310846, 2.49920883820098, 0.0
11970, 92.50068142659933, 3.749069977659135, 0.0
11971, 91.2508607496867, 3.748813257301471, 0.0
11972, 92.5002271421722, 1.249689992553045, 0.0
11973, 91.25028691653023, 1.24960441910049, 0.0
11974, 95.00010759345669, 1.249861139458155, 0.0
11975, 93.75033473566324, 2.4995511320112, 0.0
11976, 93.75016736781426, 1.2497755660056, 0.0
11977, 95.00032278042475, 3.749583418374465, 0.0
11978, 93.75050210351203, 3.7493266980168, 0.0
11979, 96.25057569331389, 7.499294961546758, 0.0
11980, 97.5004680998367, 8.74943382207848, 0.0
11981, 96.25070214975506, 8.749150733135291, 0.0
11982, 96.25032278043159, 4.99958341836957, 0.0
11983, 97.50029949124848, 6.249626126630547, 0.0
11984, 96.25044923687275, 6.249439189958164, 0.0
11985, 98.7501075934772, 4.999861139443472, 0.0
11986, 98.75019189777129, 7.499764987162388, 0.0
11987, 98.75014974562424, 6.249813063303016, 0.0
11988, 98.75023404991833, 8.749716911021668, 0.0
11989, 97.50005379672623, 1.249930569726625, 0.0
11990, 96.25016139020484, 2.49979170918478, 0.0
11991, 96.25008069509126, 1.24989585459239, 0.0
11992, 98.75005379673448, 2.49993056972172, 0.0
11993, 98.7500268983636, 1.249965284860849, 0.0
11994, 97.50016139021167, 3.749791709179886, 0.0
11995, 98.75008069510584, 3.749895854582594, 0.0
11996, 96.25024208531822, 3.749687563777175, 0.0
11997, 8.745958787869156, 187.5061481017627, 0.0
11998, 7.495847795668043, 186.2555253013138, 0.0
11999, 8.744789300924483, 186.257059106839, 0.0
12000, 8.748297761758502, 190.0043260916101, 0.0
12001, 7.497650256771983, 188.7541891121044, 0.0
12002, 8.747128274813829, 188.7552370966864, 0.0
12003, 6.248805212889405, 190.0027159433893, 0.0
12004, 4.998694220688291, 188.7520931429405, 0.0
12005, 6.24753926457087, 187.5035663116555, 0.0
12006, 6.248172238730137, 188.7531411275224, 0.0
12007, 4.997964785155164, 186.2524576902634, 0.0
12008, 6.246906290411603, 186.2539914957886, 0.0
12009, 9.998502773867468, 191.2542776768445, 0.0
12010, 8.749093238305655, 192.5028864710386, 0.0
12011, 7.498888226196689, 191.2529348858043, 0.0
12012, 8.74869550003208, 191.2536062813243, 0.0
12013, 9.999420249216303, 193.7525706990924, 0.0
12014, 8.749888714852808, 195.0014468504671, 0.0
12015, 7.49956170394216, 193.7517626224133, 0.0
12016, 8.749490976579231, 193.7521666607528, 0.0
12017, 6.249908170776983, 195.0009061309685, 0.0
12018, 4.999703158668016, 193.7509545457341, 0.0
12019, 6.249356691833194, 192.5018110371789, 0.0
12020, 6.249632431305089, 193.7513585840737, 0.0
12021, 4.999273678525909, 191.251592094764, 0.0
12022, 6.249080952361298, 191.2522634902841, 0.0
12023, 9.999909240185804, 196.2512879076623, 0.0
12024, 8.749944357457483, 197.5007234252336, 0.0
12025, 7.499923832124487, 196.2508823680383, 0.0
12026, 8.749916536155146, 196.2510851378503, 0.0
12027, 9.999969746775971, 198.7504293025541, 0.0
12028, 7.499974610743671, 198.7502941226795, 0.0
12029, 8.749972178759657, 198.7503617126168, 0.0
12030, 4.999979474711413, 198.7501589428048, 0.0
12031, 6.249954085410689, 197.5004530654842, 0.0
12032, 6.249977042728338, 198.7502265327421, 0.0
12033, 4.999938424063185, 196.2504768284144, 0.0
12034, 6.249931128093836, 196.2506795982264, 0.0
12035, 13.74809908166756, 192.5076398445993, 0.0
12036, 12.49763249336759, 191.2577671426711, 0.0
12037, 13.74719735311765, 191.2595118755844, 0.0
12038, 13.74990253876738, 195.0038957826292, 0.0
12039, 12.49914062321708, 193.7547021087736, 0.0
12040, 13.74900081021747, 193.7557678136143, 0.0
12041, 11.24988683751627, 195.0024434010207, 0.0
12042, 11.24867403491711, 192.5048294068454, 0.0
12043, 11.24928043621669, 193.7536364039331, 0.0
12044, 11.24806763361753, 191.2560224097577, 0.0
12045, 17.50022602481202, 196.2556120411273, 0.0
12046, 16.25005293899971, 197.5030261737341, 0.0
12047, 14.99993279207134, 196.2534664800751, 0.0
12048, 16.25007940844168, 196.2545392606012, 0.0
12049, 20.0005192575524, 196.2577576021794, 0.0
12050, 18.75024842749932, 197.5044565477689, 0.0
12051, 18.75037264118221, 196.2566848216533, 0.0
12052, 20.00017308594554, 198.7525858673932, 0.0
12053, 17.5000753416873, 198.7518706803758, 0.0
12054, 18.7501242138162, 198.7522282738845, 0.0
12055, 14.99997759742817, 198.7511554933584, 0.0
12056, 16.25002646955787, 198.751513086867, 0.0
12057, 12.49992101612887, 196.2523771938687, 0.0
12058, 11.2499434187984, 197.5012217005103, 0.0
12059, 11.24991512815734, 196.2518325507655, 0.0
12060, 13.74995126943284, 197.5019478913146, 0.0
12061, 13.74992690410011, 196.2529218369719, 0.0
12062, 12.49997367210296, 198.7507923979562, 0.0
12063, 13.74997563476665, 198.7509739456573, 0.0
12064, 11.24997170943914, 198.7506108502552, 0.0
12065, 25.00296170525158, 196.2630195596797, 0.0
12066, 23.75156739560785, 197.5078027135364, 0.0
12067, 22.50174048140239, 196.2603885809295, 0.0
12068, 23.75235109332699, 196.2617040703046, 0.0
12069, 25.0009872352023, 198.7543398532266, 0.0
12070, 22.50058016057513, 198.7534628603099, 0.0
12071, 23.75078369789008, 198.7539013567682, 0.0
12072, 21.25075324636887, 197.506048727703, 0.0
12073, 21.25037662326041, 198.7530243638515, 0.0
12074, 21.2511298694774, 196.2590730915545, 0.0
12075, 28.75396112693389, 197.5127470813111, 0.0
12076, 27.50494836194966, 196.2670869345376, 0.0
12077, 28.75594169029883, 196.2691206219666, 0.0
12078, 27.50164945411314, 198.7556956448459, 0.0
12079, 28.75198056356843, 198.7563735406555, 0.0
12080, 26.25263668912917, 197.5100354980724, 0.0
12081, 26.25131834465804, 198.7550177490362, 0.0
12082, 26.25395503360062, 196.2650532471086, 0.0
12083, 1.249582375730432, 187.5005688542169, 0.0
12084, 2.499347110344146, 188.7510465715101, 0.0
12085, 1.249764734613714, 190.000477717373, 0.0
12086, 1.249673555172073, 188.750523285795, 0.0
12087, 1.24940001684715, 185.0006599910612, 0.0
12088, 2.498982392577582, 186.2512288451805, 0.0
12089, 1.249491196288791, 186.2506144226393, 0.0
12090, 3.74820005054145, 185.0019799729703, 0.0
12091, 3.748747127191296, 187.5017065624736, 0.0
12092, 3.748473588866373, 186.2518432677219, 0.0
12093, 3.749294203841141, 190.001433151977, 0.0
12094, 3.749020665516218, 188.7515698572253, 0.0
12095, 3.746573498718892, 182.50212985898, 0.0
12096, 2.497173481871742, 181.2514698680343, 0.0
12097, 3.744946946896333, 180.0022797449895, 0.0
12098, 3.745760222807612, 181.2522048019848, 0.0
12099, 2.498257849753447, 183.751369944022, 0.0
12100, 3.747386774630171, 183.7520549159752, 0.0
12101, 1.248857832906297, 182.5007099530764, 0.0
12102, 1.249128924876724, 183.7506849720692, 0.0
12103, 1.248315648965445, 180.0007599150912, 0.0
12104, 1.248586740935871, 181.2507349340837, 0.0
12105, 2.49591968981758, 178.7511586339732, 0.0
12106, 3.742812122556406, 177.5011961567798, 0.0
12107, 3.74387953472637, 178.7517379508847, 0.0
12108, 1.247604040852135, 177.5003987190321, 0.0
12109, 1.24795984490879, 178.7505793170616, 0.0
12110, 1.246892432738826, 175.0000375229754, 0.0
12111, 2.494496473590962, 176.2504362418396, 0.0
12112, 1.247248236795481, 176.2502181210045, 0.0
12113, 3.740677298216479, 175.0001125685709, 0.0
12114, 3.741744710386443, 176.2506543626754, 0.0
12115, 3.736641566771998, 172.4979043816583, 0.0
12116, 2.489749134033172, 171.2478668588694, 0.0
12117, 3.734623701049757, 171.2468002882018, 0.0
12118, 2.492439621662825, 173.7493389834721, 0.0
12119, 3.738659432494238, 173.7490084751146, 0.0
12120, 1.245547188923999, 172.4993014606837, 0.0
12121, 1.246219810831413, 173.7496694918311, 0.0
12122, 1.244874567016586, 171.2489334295365, 0.0
12123, 2.499989737355163, 198.750079471407, 0.0
12124, 3.749969212040293, 197.5002384142118, 0.0
12125, 3.749984606033768, 198.7501192071059, 0.0
12126, 1.249989737346644, 197.5000794714162, 0.0
12127, 1.249994868676874, 198.7500397357078, 0.0
12128, 1.249979474684767, 195.0001589428314, 0.0
12129, 2.499969212031411, 196.2502384142207, 0.0
12130, 1.249984606015706, 196.2501192071244, 0.0
12131, 3.749938424054302, 195.0004768284232, 0.0
12132, 3.749953818047298, 196.2503576213175, 0.0
12133, 3.749616313947722, 192.5009549902001, 0.0
12134, 2.499636839262954, 191.2507960474131, 0.0
12135, 3.749455258894431, 191.2511940710886, 0.0
12136, 2.499851579334008, 193.7504772728893, 0.0
12137, 3.749777369001012, 193.7507159093117, 0.0
12138, 1.249872104649241, 192.5003183301022, 0.0
12139, 1.249925789667004, 193.7502386364667, 0.0
12140, 1.249818419631477, 191.2503980237373, 0.0
12141, 37.44353267381801, 179.0846384767299, 0.0
12142, 38.68454816518999, 177.8861184789218, 0.0
12143, 38.70535996293051, 179.1009046100516, 0.0
12144, 36.15777892025721, 177.8497315161738, 0.0
12145, 36.18170538470551, 179.0683723434081, 0.0
12146, 37.39879441162919, 176.6512115183657, 0.0
12147, 36.13385245580892, 176.6310906889394, 0.0
12148, 38.66373636744945, 176.671332347792, 0.0
12149, 82.73017788602661, 38.60231616698479, 0.0
12150, 83.93720496280531, 37.3815518682936, 0.0
12151, 83.9509336818983, 38.62926766141658, 0.0
12152, 81.49185121563521, 37.33003677108809, 0.0
12153, 81.50942209015491, 38.57536467255299, 0.0
12154, 82.69887829241392, 36.1092724723969, 0.0
12155, 81.4742803411155, 36.08470886962319, 0.0
12156, 83.92347624371234, 36.13383607517061, 0.0
12157, 41.8109694951946, 149.4943990664361, 0.0
12158, 40.68788701486277, 148.2864229870231, 0.0
12159, 41.8121727376096, 148.4388400340371, 0.0
12160, 40.67360930985144, 150.446954917978, 0.0
12161, 41.80976625277959, 150.5499580988351, 0.0
12162, 39.55052682951961, 149.238978838565, 0.0
12163, 39.53745236692328, 150.3439517371209, 0.0
12164, 39.56360129211595, 148.1340059400092, 0.0
12165, 52.51741070805063, 169.3786001600431, 0.0
12166, 53.81551704291542, 168.1136340927834, 0.0
12167, 53.8125203897492, 169.3724118690536, 0.0
12168, 51.20213770819107, 168.1118844215381, 0.0
12169, 51.22230102635204, 169.3847884510327, 0.0
12170, 52.50024404305587, 166.8469183542784, 0.0
12171, 51.18197439003009, 166.8389803920435, 0.0
12172, 53.81851369608164, 166.8548563165132, 0.0
12173, 73.38078437864417, 48.18689873426661, 0.0
12174, 74.51291020014612, 47.01267450315785, 0.0
12175, 74.56082422318289, 48.24753499359068, 0.0
12176, 72.14471867230228, 46.89386353480641, 0.0
12177, 72.20074453410545, 48.12626247494255, 0.0
12178, 73.27684449380422, 45.71963930369765, 0.0
12179, 72.08869281049908, 45.66146459467028, 0.0
12180, 74.46499617710936, 45.77781401272502, 0.0
12181, 47.5363626775126, 179.152890062208, 0.0
12182, 48.78824345069478, 177.9467916317213, 0.0
12183, 50.05639003923842, 179.1544325077493, 0.0
12184, 48.79637635837551, 179.1536612849786, 0.0
12185, 46.26353030926641, 177.944156549669, 0.0
12186, 46.27634899664969, 179.1521188394374, 0.0
12187, 47.51541108244859, 176.7380581191823, 0.0
12188, 46.25071162188313, 176.7361942599006, 0.0
12189, 50.0448100035795, 176.7417858377456, 0.0
12190, 48.78011054301404, 176.7399219784639, 0.0
12191, 52.57474316319654, 179.1364982550026, 0.0
12192, 53.83413419239562, 177.9185590289773, 0.0
12193, 53.8339197251756, 179.1275311286292, 0.0
12194, 51.31177807840452, 177.938259124824, 0.0
12195, 51.31556660121748, 179.1454653813759, 0.0
12196, 52.57116910760359, 176.7203198987987, 0.0
12197, 51.30798955559155, 176.7310528682722, 0.0
12198, 53.83434865961564, 176.7095869293252, 0.0
12199, 50.48756652218757, 120.7645148217975, 0.0
12200, 51.35118702324171, 120.095454307465, 0.0
12201, 51.57029225351815, 120.9672634460125, 0.0
12202, 48.32211505952641, 120.3590175733677, 0.0
12203, 49.40942626663099, 119.6534749462188, 0.0
12204, 49.40484079085699, 120.5617661975826, 0.0
12205, 48.55497671712485, 118.5059529578236, 0.0
12206, 49.41859721817899, 117.8368924434911, 0.0
12207, 50.27304676768513, 118.9844144318863, 0.0
12208, 49.41401174240499, 118.745183694855, 0.0
12209, 50.91297656268884, 118.3518360303702, 0.0
12210, 51.13208179296527, 119.2236451689176, 0.0
12211, 44.82866354767376, 20.85188810533793, 0.0
12212, 43.53795276409316, 22.06958310287467, 0.0
12213, 42.29832303824845, 20.87485486228021, 0.0
12214, 43.56349329296111, 20.86337148380907, 0.0
12215, 44.78179122873418, 23.26243832797584, 0.0
12216, 42.24303324171626, 23.28915111590473, 0.0
12217, 43.51241223522522, 23.27579472194028, 0.0
12218, 41.00340351587155, 22.09442287531026, 0.0
12219, 40.97365424820731, 23.30250750986917, 0.0
12220, 41.0331527835358, 20.88633824075135, 0.0
12221, 56.0642090396026, 48.32694810244548, 0.0
12222, 54.7503857087659, 47.12148307843319, 0.0
12223, 55.70649042372429, 45.9968916257308, 0.0
12224, 55.88534973166344, 47.16191986408813, 0.0
12225, 53.82282636142648, 48.2298160542415, 0.0
12226, 53.40801701031025, 45.93227653131499, 0.0
12227, 53.61542168586836, 47.08104629277824, 0.0
12228, 54.36412172526864, 44.80768507861259, 0.0
12229, 53.20061233475214, 44.78350676985173, 0.0
12230, 55.52763111578513, 44.83186338737345, 0.0
12231, 25.40259129281043, 47.15384436274638, 0.0
12232, 26.54132754025616, 48.41983712040923, 0.0
12233, 25.371471444227, 48.4274581352594, 0.0
12234, 26.60897892233637, 45.86578539972129, 0.0
12235, 25.43371114139387, 45.88023059023337, 0.0
12236, 28.95951448422139, 45.83689501869715, 0.0
12237, 27.74771516978209, 47.13177815738413, 0.0
12238, 27.78424670327888, 45.85134020920921, 0.0
12239, 28.88103973231446, 48.40459509070888, 0.0
12240, 27.71118363628531, 48.41221610555905, 0.0
12241, 64.76436979410504, 57.25937277693398, 0.0
12242, 65.79699152450175, 56.16025541099207, 0.0
12243, 65.88586926504638, 57.3721394319919, 0.0
12244, 63.54626406083872, 55.94197457049103, 0.0
12245, 63.64287032316371, 57.14660612187605, 0.0
12246, 64.57888579123542, 54.84285720454913, 0.0
12247, 63.44965779851373, 54.73734301910601, 0.0
12248, 65.70811378395712, 54.94837138999224, 0.0
12249, 52.47488181309274, 25.67901420540986, 0.0
12250, 51.19120828198855, 26.86901329437796, 0.0
12251, 51.18474705773397, 25.66825206032096, 0.0
12252, 53.77983809863962, 26.89304511993981, 0.0
12253, 53.7650165684515, 25.68977635049876, 0.0
12254, 52.49616456753543, 28.08304420890792, 0.0
12255, 53.79465962882773, 28.09631388938087, 0.0
12256, 51.19766950624313, 28.06977452843498, 0.0
12257, 6.085258797383578, 132.4809720383558, 0.0
12258, 7.297421148338236, 133.7472700451301, 0.0
12259, 6.087911451290296, 133.7343171508655, 0.0
12260, 7.291822011586842, 131.2362908470417, 0.0
12261, 6.082606143476862, 131.2276269258462, 0.0
12262, 8.503984362541498, 132.5025888538159, 0.0
12263, 8.501037879696822, 131.2449547682372, 0.0
12264, 8.506930845386176, 133.7602229393946, 0.0
12265, 32.99448041396274, 36.99982694120468, 0.0
12266, 31.79835417741136, 35.7166944700333, 0.0
12267, 33.03929645464377, 35.70801240382863, 0.0
12268, 31.70929179660732, 38.26853758558281, 0.0
12269, 32.94966437328171, 38.29164147858073, 0.0
12270, 30.51316556005594, 36.98540511441143, 0.0
12271, 30.46891921993293, 38.24543369258488, 0.0
12272, 30.55741190017895, 35.72537653623798, 0.0
12273, 83.10325743639024, 58.48548043064916, 0.0
12274, 84.25971611229917, 57.2952042815803, 0.0
12275, 84.2835320765309, 58.53068455316956, 0.0
12276, 81.89352500709995, 57.20841155965871, 0.0
12277, 81.92298279624957, 58.44027630812876, 0.0
12278, 83.04998368300889, 56.01813541058984, 0.0
12279, 81.86406721795034, 55.97654681118865, 0.0
12280, 84.23590014806744, 56.05972400999102, 0.0
12281, 74.62867748697741, 147.9111417910791, 0.0
12282, 73.45912536384267, 146.7314884227926, 0.0
12283, 74.65021038587835, 146.6717771303055, 0.0
12284, 73.41563911434605, 149.2060166214804, 0.0
12285, 74.60714458807648, 149.1505064518528, 0.0
12286, 72.24608699121131, 148.0263632531939, 0.0
12287, 72.22413364061563, 149.261526791108, 0.0
12288, 72.26804034180698, 146.7911997152798, 0.0
12289, 28.23222905810275, 32.07770732680867, 0.0
12290, 27.05435117195407, 30.88605043948088, 0.0
12291, 28.27257911566464, 30.8511058064787, 0.0
12292, 26.97986823942964, 33.3432819672048, 0.0
12293, 28.19187900054087, 33.30430884713865, 0.0
12294, 25.80199035328096, 32.15162507987701, 0.0
12295, 25.76785747831842, 33.38225508727094, 0.0
12296, 25.83612322824352, 30.92099507248307, 0.0
12297, 38.04792313697432, 43.08011588179671, 0.0
12298, 36.95206981075817, 41.45207974213328, 0.0
12299, 38.4056496515461, 41.71452459778781, 0.0
12300, 36.40841717145329, 44.14269288232397, 0.0
12301, 37.69019662240255, 44.44570716580563, 0.0
12302, 35.31256384523715, 42.51465674266053, 0.0
12303, 35.12663772050405, 43.83967859884231, 0.0
12304, 35.49848996997025, 41.18963488647875, 0.0
12305, 20.73407009627993, 155.2740026816792, 0.0
12306, 21.95988565887371, 156.5482601881126, 0.0
12307, 20.7885860583172, 157.7453052197399, 0.0
12308, 20.76132807729856, 156.5096539507095, 0.0
12309, 23.12506623437925, 155.3519238966041, 0.0
12310, 23.19182024651846, 157.8218089544274, 0.0
12311, 23.15844324044886, 156.5868664255157, 0.0
12312, 22.02052064596195, 159.0188539860546, 0.0
12313, 23.22519725258807, 159.056751483339, 0.0
12314, 20.81584403933583, 158.9809564887703, 0.0
12315, 37.47175683293275, 114.2085073034274, 0.0
12316, 36.08852655832934, 115.2511632028219, 0.0
12317, 35.0906648680327, 114.120059664416, 0.0
12318, 36.47389514263611, 113.0774037650216, 0.0
12319, 36.28121085048273, 114.1642834839217, 0.0
12320, 37.008126594392, 116.4468327153258, 0.0
12321, 35.70315797402258, 117.4249226406221, 0.0
12322, 34.78355793795992, 116.2292531281182, 0.0
12323, 35.89584226617596, 116.338042921722, 0.0
12324, 33.55685097182447, 117.1427770793164, 0.0
12325, 32.55898928152783, 116.0116735409105, 0.0
12326, 33.78569624766327, 115.0981495897123, 0.0
12327, 33.67127360974386, 116.1204633345144, 0.0
12328, 32.70957290313263, 114.0316120254046, 0.0
12329, 34.01454152350206, 113.0535221001082, 0.0
12330, 33.90011888558266, 114.0758358449103, 0.0
12331, 61.91305014959192, 91.90520436652425, 0.0
12332, 61.18989576193628, 89.93379423436895, 0.0
12333, 62.56603748962822, 89.26132043635955, 0.0
12334, 62.23954381961007, 90.58326240144191, 0.0
12335, 59.78792872456643, 90.43205137469597, 0.0
12336, 59.09059964658871, 88.63485790022301, 0.0
12337, 60.49256668395856, 88.13660075989598, 0.0
12338, 60.14024770426251, 89.28432606729598, 0.0
12339, 59.82106291565876, 86.51362394310539, 0.0
12340, 61.1972046433507, 85.84115014509601, 0.0
12341, 61.8687084116505, 87.4641269618866, 0.0
12342, 60.84488566365464, 86.988875452496, 0.0
12343, 63.21902482966452, 86.61743650619488, 0.0
12344, 62.89253115964637, 87.93937847127721, 0.0
12345, 57.12902255661088, 57.57597454840401, 0.0
12346, 55.937395800144, 56.28807115493186, 0.0
12347, 56.90153631336462, 55.25289241494336, 0.0
12348, 57.01527943498775, 56.41443348167369, 0.0
12349, 54.97716033584275, 57.29795764885671, 0.0
12350, 54.74186399475776, 55.02546000752337, 0.0
12351, 54.85951216530025, 56.16170882819004, 0.0
12352, 54.50656765367279, 52.75296236619003, 0.0
12353, 55.70600450797838, 53.99028126753487, 0.0
12354, 54.62421582421528, 53.88921118685671, 0.0
12355, 56.67405007011835, 52.92981028148272, 0.0
12356, 56.78779319174148, 54.09135134821304, 0.0
12357, 62.92987787393416, 33.0981979605316, 0.0
12358, 64.14368041002365, 31.92003755846563, 0.0
12359, 64.18936519376282, 33.13317931641036, 0.0
12360, 60.41090323427681, 33.02823524877407, 0.0
12361, 61.61812914978747, 31.85364813112689, 0.0
12362, 61.67039055410549, 33.06321660465284, 0.0
12363, 60.29980380506195, 30.61267158614097, 0.0
12364, 62.83193168587696, 30.67548772906092, 0.0
12365, 61.56586774546946, 30.64407965760094, 0.0
12366, 64.09799562628446, 30.7068958005209, 0.0
12367, 41.09547199557407, 173.0615175908462, 0.0
12368, 42.4018537526764, 174.2869624614274, 0.0
12369, 41.13512626787858, 174.2759594173003, 0.0
12370, 42.32528681506299, 171.8564711975465, 0.0
12371, 41.05581772326955, 171.8470757643921, 0.0
12372, 43.63166857216532, 173.0819160681277, 0.0
12373, 43.59475590685642, 171.8658666307009, 0.0
12374, 43.66858123747422, 174.2979655055545, 0.0
12375, 42.39500861941861, 63.52069750443427, 0.0
12376, 43.36080156303931, 64.31961022762475, 0.0
12377, 42.38656988597536, 64.40816488940509, 0.0
12378, 42.41188608630511, 61.74576273449264, 0.0
12379, 43.2327386370613, 62.28213525984525, 0.0
12380, 42.40344735286186, 62.63323011946346, 0.0
12381, 43.92552826183947, 60.78103281741834, 0.0
12382, 44.89132120546017, 61.57994554060883, 0.0
12383, 44.198531580682, 63.08104798303573, 0.0
12384, 44.06202992126074, 61.93104040022703, 0.0
12385, 45.30926491716721, 64.1425009040641, 0.0
12386, 44.33503324010326, 64.23105556584441, 0.0
12387, 41.79139547237153, 134.7857055694317, 0.0
12388, 42.66151482378407, 136.0819732078387, 0.0
12389, 41.34716868661231, 136.6768164882462, 0.0
12390, 40.47704933519978, 135.3805488498392, 0.0
12391, 41.56928207949192, 135.731261028839, 0.0
12392, 43.94265680430495, 135.4709592146324, 0.0
12393, 44.84598031236835, 136.7833975658382, 0.0
12394, 43.56483833184748, 137.3944115590444, 0.0
12395, 43.75374756807621, 136.4326853868384, 0.0
12396, 44.50136599656176, 138.7230206230489, 0.0
12397, 42.25049219467572, 137.9892548394519, 0.0
12398, 43.37592909561874, 138.3561377312504, 0.0
12399, 39.99961839278969, 137.255489055855, 0.0
12400, 41.12505529373271, 137.6223719476534, 0.0
12401, 53.60349681819535, 86.08105277947092, 0.0
12402, 54.76034316621245, 85.4863062256293, 0.0
12403, 55.38670274919223, 86.77348696821531, 0.0
12404, 54.49509978369379, 86.42726987384313, 0.0
12405, 51.82029088719847, 85.38861859072654, 0.0
12406, 52.95126495472309, 84.84824537895066, 0.0
12407, 52.7118938526969, 85.73483568509872, 0.0
12408, 52.27316081075836, 83.66981132049612, 0.0
12409, 53.43000715877547, 83.07506476665449, 0.0
12410, 54.1081113027402, 84.25349882510903, 0.0
12411, 53.19063605674927, 83.96165507280257, 0.0
12412, 55.29082993124977, 83.60437892920166, 0.0
12413, 55.94306179472203, 84.83718632972193, 0.0
12414, 55.02558654873111, 84.54534257741548, 0.0
12415, 39.89512746878292, 67.0523434256136, 0.0
12416, 39.03807850637206, 65.71727334630484, 0.0
12417, 40.12250022486457, 65.99383892233112, 0.0
12418, 39.44038195661962, 69.16935243217854, 0.0
12419, 38.3776021534031, 67.9163160371944, 0.0
12420, 39.66775471270127, 68.11084792889608, 0.0
12421, 36.65434599721763, 68.86232233309988, 0.0
12422, 35.79729703480677, 67.5272522537911, 0.0
12423, 37.52055319099225, 66.58124595788564, 0.0
12424, 37.08744959410494, 67.72178414549276, 0.0
12425, 36.86923506938704, 65.16414219425222, 0.0
12426, 37.95365678787955, 65.44070777027852, 0.0
12427, 69.54887043432308, 134.1170668537033, 0.0
12428, 69.13033719056132, 132.3922170746148, 0.0
12429, 70.28743760091874, 131.845435283822, 0.0
12430, 69.9181540176209, 132.9812510687626, 0.0
12431, 68.11313674047429, 132.6768410775912, 0.0
12432, 68.57190398652918, 130.9295250833427, 0.0
12433, 68.34252036350173, 131.8031830804669, 0.0
12434, 69.72900439688661, 130.3827432925499, 0.0
12435, 68.80128760955665, 130.0558670862185, 0.0
12436, 70.6567211842166, 130.7096194988813, 0.0
12437, 46.00189530266051, 136.0152870105475, 0.0
12438, 46.85165295411709, 137.2334736612602, 0.0
12439, 45.69573796382493, 138.0015842165508, 0.0
12440, 45.84881663324272, 137.0084356135492, 0.0
12441, 47.96911096743825, 136.4186889571769, 0.0
12442, 48.85732559586582, 137.6835497566823, 0.0
12443, 47.73986758254466, 138.4983344607655, 0.0
12444, 47.85448927499145, 137.4585117089712, 0.0
12445, 48.66653918794323, 139.8098694090635, 0.0
12446, 46.5839525922525, 139.2664450160562, 0.0
12447, 47.62524589009787, 139.5381572125599, 0.0
12448, 45.54265929440713, 138.9947328195526, 0.0
12449, 46.44966309661093, 132.4785426749861, 0.0
12450, 47.15612008982977, 133.6704105661815, 0.0
12451, 46.22577919963572, 134.2469148427668, 0.0
12452, 45.51932220641689, 133.0550469515714, 0.0
12453, 46.33772114812334, 133.3627287588764, 0.0
12454, 47.97632171956887, 133.1645601789231, 0.0
12455, 48.79291797324266, 134.2857741807916, 0.0
12456, 47.97271634350356, 134.79162456805, 0.0
12457, 47.97451903153621, 133.9780923734865, 0.0
12458, 48.8994518576323, 135.8421846805916, 0.0
12459, 47.04237545330951, 135.3681288446353, 0.0
12460, 47.97091365547091, 135.6051567626135, 0.0
12461, 45.18529904898672, 134.894073008679, 0.0
12462, 46.11383725114811, 135.1311009266572, 0.0
12463, 34.87669800640084, 63.55190451368973, 0.0
12464, 33.30428696676816, 63.91174099569909, 0.0
12465, 33.88042947490775, 62.74578567340849, 0.0
12466, 35.32360635698733, 65.53437848124747, 0.0
12467, 35.87296653789394, 64.35802335397098, 0.0
12468, 34.22488599517409, 67.88708873580046, 0.0
12469, 33.75119531735464, 65.89421496325684, 0.0
12470, 34.77424617608071, 66.71073360852398, 0.0
12471, 32.15200195048898, 66.24365164028032, 0.0
12472, 32.72814445862857, 65.0776963179897, 0.0
12473, 39.62417280801095, 73.39455054770414, 0.0
12474, 38.42245865737033, 72.36221970727348, 0.0
12475, 39.53227738231529, 71.28195148994135, 0.0
12476, 40.7339915329559, 72.31428233037204, 0.0
12477, 39.57822509516312, 72.33825101882276, 0.0
12478, 37.47080762703086, 73.56081041659897, 0.0
12479, 36.11092578178477, 72.41015708417493, 0.0
12480, 37.06257681212425, 71.21156637484944, 0.0
12481, 37.26669221957756, 72.3861883957242, 0.0
12482, 35.54452727227269, 69.94259055043202, 0.0
12483, 38.1723955370692, 70.1312981575173, 0.0
12484, 36.85846140467095, 70.03694435397466, 0.0
12485, 40.80026380186571, 70.3200057646026, 0.0
12486, 39.48632966946746, 70.22565196105995, 0.0
12487, 83.24120603546301, 68.3786339606809, 0.0
12488, 84.39527295134064, 67.19301905415756, 0.0
12489, 84.40522214281533, 68.4332661209257, 0.0
12490, 82.06532456064798, 67.08354291531342, 0.0
12491, 82.07718992811068, 68.3240018004361, 0.0
12492, 83.21939147652563, 65.89792800879007, 0.0
12493, 82.05345919318528, 65.84308403019072, 0.0
12494, 84.38532375986597, 65.95277198738943, 0.0
12495, 42.65368018850704, 78.90196477314663, 0.0
12496, 40.97227044458793, 78.72614805605811, 0.0
12497, 41.29157379327604, 77.64740091741432, 0.0
12498, 41.97262699089153, 78.27468284528048, 0.0
12499, 40.45623026905427, 79.93669209954817, 0.0
12500, 38.97155735198071, 79.62907847761336, 0.0
12501, 39.48759752751437, 78.4185344341233, 0.0
12502, 39.97191389828432, 79.17761326683573, 0.0
12503, 38.19966143728637, 77.9791239073422, 0.0
12504, 38.51896478597448, 76.90037676869841, 0.0
12505, 39.80690087620248, 77.33978729547951, 0.0
12506, 39.00328115674442, 77.65945560141085, 0.0
12507, 39.92946739804504, 76.39283706168199, 0.0
12508, 40.61052059566054, 77.02011898954815, 0.0
12509, 50.25209231163653, 76.50840808688042, 0.0
12510, 51.14512639859905, 77.67741899537191, 0.0
12511, 50.00512599004113, 78.60782011740102, 0.0
12512, 50.12860915083883, 77.55811410214072, 0.0
12513, 50.49905863323193, 74.4089960563598, 0.0
12514, 51.397885131813, 75.59405951566592, 0.0
12515, 50.37557547243423, 75.45870207162011, 0.0
12516, 52.54947036360801, 74.69576349526602, 0.0
12517, 53.44250445057053, 75.86477440375751, 0.0
12518, 52.29091921877552, 76.7630704241574, 0.0
12519, 52.42019479119176, 75.72941695971171, 0.0
12520, 53.17816089411951, 77.91602878183431, 0.0
12521, 52.03236807394304, 78.83037735304882, 0.0
12522, 52.16164364635928, 77.79672388860311, 0.0
12523, 41.8877299038998, 71.417116457735, 0.0
12524, 42.94017648587356, 72.52835448996038, 0.0
12525, 41.83708400941474, 72.42131841016621, 0.0
12526, 43.07648779490401, 70.50582324600495, 0.0
12527, 41.93837579838486, 70.41291450530377, 0.0
12528, 44.12893437687777, 71.61706127823035, 0.0
12529, 44.21459979142315, 70.59873198670616, 0.0
12530, 44.04326896233238, 72.63539056975456, 0.0
12531, 48.63557488111587, 22.04928598791056, 0.0
12532, 47.37551700012991, 20.84644362419854, 0.0
12533, 48.64894372635798, 20.84372138362884, 0.0
12534, 47.34206776682723, 23.25737983745346, 0.0
12535, 48.62220603587376, 23.25485059219228, 0.0
12536, 46.08200988584127, 22.05453747374144, 0.0
12537, 46.06192949778071, 23.25990908271465, 0.0
12538, 46.10209027390184, 20.84916586476823, 0.0
12539, 43.02373605565481, 134.1929621773059, 0.0
12540, 44.26637830033659, 133.6160759713525, 0.0
12541, 44.10451755232077, 134.5435175929925, 0.0
12542, 40.86217306232289, 133.4918513459328, 0.0
12543, 42.09451364560616, 132.899107953807, 0.0
12544, 41.94295455898884, 133.8424067616194, 0.0
12545, 41.154989574159, 131.5893965441357, 0.0
12546, 42.39763181884078, 131.0125103381822, 0.0
12547, 43.33715589028795, 132.3222217478535, 0.0
12548, 42.24607273222347, 131.9558091459946, 0.0
12549, 44.59009979636824, 131.7611927280725, 0.0
12550, 44.42823904835242, 132.6886343497125, 0.0
12551, 38.58508850814344, 80.63950838262181, 0.0
12552, 37.37360774261326, 80.13404059288074, 0.0
12553, 37.76007658645053, 79.12361068787229, 0.0
12554, 38.17258254729699, 79.88155953524705, 0.0
12555, 37.04025490577456, 81.01041362236757, 0.0
12556, 35.77565813324581, 80.6390027081481, 0.0
12557, 36.10901097008452, 79.76262967866128, 0.0
12558, 36.57463293792954, 80.38652165051442, 0.0
12559, 34.79129819055721, 79.52527563996347, 0.0
12560, 35.17776703439449, 78.51484573495502, 0.0
12561, 36.49547981392179, 78.75219977365283, 0.0
12562, 35.6433890022395, 79.13873770680816, 0.0
12563, 36.93506466475762, 77.60771299312276, 0.0
12564, 37.34757062560408, 78.36566184049752, 0.0
12565, 35.69321838581519, 31.9009357776924, 0.0
12566, 36.96766881382338, 33.11833916824786, 0.0
12567, 35.66570378291031, 33.13780372080396, 0.0
12568, 37.00092896712083, 30.63957649037474, 0.0
12569, 35.72073298872007, 30.66406783458084, 0.0
12570, 38.27537939512901, 31.8569798809302, 0.0
12571, 38.28112494552158, 30.61508514616865, 0.0
12572, 38.26963384473645, 33.09887461569176, 0.0
12573, 55.5340462727913, 121.5185618956104, 0.0
12574, 55.51815234291686, 122.7106304076144, 0.0
12575, 53.81614129228595, 122.6020423686283, 0.0
12576, 54.67509378253862, 122.0603021321194, 0.0
12577, 57.25195125329665, 120.4350814225926, 0.0
12578, 57.25782899590755, 121.770882053063, 0.0
12579, 56.39299876304398, 120.9768216591015, 0.0
12580, 59.00338339150915, 122.166934328982, 0.0
12581, 58.98748946163469, 123.3590028409859, 0.0
12582, 57.24193506603311, 122.9629505650669, 0.0
12583, 58.12265922877113, 122.5649424470244, 0.0
12584, 57.20426946367331, 124.0112869586043, 0.0
12585, 55.48048674055707, 123.7589668011518, 0.0
12586, 56.36121090329509, 123.3609586831093, 0.0
12587, 64.40198756346878, 96.54920227889933, 0.0
12588, 65.10117601812762, 94.94800962029791, 0.0
12589, 66.61601389017065, 95.84809320840013, 0.0
12590, 65.5090007268197, 96.19864774364973, 0.0
12591, 63.45106976255937, 93.94425466792536, 0.0
12592, 65.93563285631168, 93.45048832596684, 0.0
12593, 64.69335130943553, 93.69737149694609, 0.0
12594, 68.420195950064, 92.95672198400834, 0.0
12595, 67.45047072835472, 94.35057191406906, 0.0
12596, 67.17791440318783, 93.20360515498759, 0.0
12597, 68.83004021687253, 95.14698413790094, 0.0
12598, 67.72302705352159, 95.49753867315054, 0.0
12599, 63.33376917719836, 75.42028452797356, 0.0
12600, 63.03761411352357, 73.91168261487914, 0.0
12601, 64.06770692506294, 73.83289899036374, 0.0
12602, 64.36386198873771, 75.34150090345815, 0.0
12603, 63.70073805113065, 74.62659175916863, 0.0
12604, 61.9142199665861, 74.16501440780007, 0.0
12605, 62.83476038524689, 72.2285325333792, 0.0
12606, 62.37449017591651, 73.19677347058963, 0.0
12607, 63.75530080390769, 70.29205065895832, 0.0
12608, 63.86485319678625, 72.1497489088638, 0.0
12609, 63.2950305945773, 71.26029159616874, 0.0
12610, 64.8016446729275, 72.24551345275391, 0.0
12611, 65.00449840120419, 73.92866353425386, 0.0
12612, 64.43467579899522, 73.03920622155883, 0.0
12613, 66.30152545130056, 114.7934342372191, 0.0
12614, 64.48680604080825, 114.5562547681836, 0.0
12615, 64.45258129648204, 113.3562956285252, 0.0
12616, 65.3770533738913, 114.0748649328722, 0.0
12617, 64.28040325140933, 115.5788585269179, 0.0
12618, 62.70631137464214, 115.5190344388064, 0.0
12619, 62.91271416404106, 114.4964306800721, 0.0
12620, 63.59655870772519, 115.037644603495, 0.0
12621, 61.57924982099898, 114.6139619728845, 0.0
12622, 61.54502507667278, 113.4140028332262, 0.0
12623, 62.87848941971485, 113.2964715404137, 0.0
12624, 62.22886962035692, 113.9552167566491, 0.0
12625, 62.60363714166353, 111.9191570198313, 0.0
12626, 63.52810921907279, 112.6377263241783, 0.0
12627, 50.07239884840325, 87.55538138510019, 0.0
12628, 49.84333467198335, 86.34373906149536, 0.0
12629, 50.96632776764399, 85.97437434577648, 0.0
12630, 50.51936330802363, 86.76487786543834, 0.0
12631, 49.17846992916252, 89.1363884244239, 0.0
12632, 48.85240479621114, 87.62976425306366, 0.0
12633, 49.62543438878289, 88.34588490476204, 0.0
12634, 47.53540978748755, 87.40916527327173, 0.0
12635, 47.30634561106764, 86.19752294966688, 0.0
12636, 48.62334061979124, 86.41812192945883, 0.0
12637, 48.0793752036394, 86.91364360136527, 0.0
12638, 48.49127739990281, 85.50146145360941, 0.0
12639, 49.71127145209493, 85.42707858564593, 0.0
12640, 49.16730603594308, 85.92260025755239, 0.0
12641, 45.96100348865087, 60.48988632123102, 0.0
12642, 47.36186060345755, 61.89591904712841, 0.0
12643, 46.29217832026685, 62.98597826650622, 0.0
12644, 46.12659090445887, 61.73793229386862, 0.0
12645, 48.51831176673932, 60.87232324593067, 0.0
12646, 48.67594883817316, 63.23548835484572, 0.0
12647, 48.59713030245624, 62.0539058003882, 0.0
12648, 48.83358590960701, 65.59865346376077, 0.0
12649, 47.60626655498246, 64.32554757422352, 0.0
12650, 48.75476737389008, 64.41707090930325, 0.0
12651, 46.62335315188282, 65.4820702117814, 0.0
12652, 46.45776573607483, 64.23402423914379, 0.0
12653, 73.81310853654861, 57.99671895421729, 0.0
12654, 74.9071787132103, 56.84824012606428, 0.0
12655, 74.95613696974159, 58.07200440377351, 0.0
12656, 72.6122770067181, 56.69972869653563, 0.0
12657, 72.67008010335563, 57.92143350466107, 0.0
12658, 73.70634718337979, 55.55124986838263, 0.0
12659, 72.55447391008057, 55.47802388841021, 0.0
12660, 74.858220456679, 55.62447584835506, 0.0
12661, 32.52306240831187, 70.28809315949931, 0.0
12662, 33.54242938613737, 70.89531045061017, 0.0
12663, 32.55969847782755, 72.4552476418992, 0.0
12664, 31.54033150000205, 71.84803035078835, 0.0
12665, 32.54138044306971, 71.37167040069926, 0.0
12666, 34.34857281444839, 69.23523590887348, 0.0
12667, 34.73838384396167, 71.6026650921687, 0.0
12668, 34.54347832920503, 70.41895050052109, 0.0
12669, 35.12819487347495, 73.97009427546395, 0.0
12670, 33.75565293565185, 73.16260228345774, 0.0
12671, 34.93328935871831, 72.78637968381634, 0.0
12672, 32.59633454734322, 74.62240212429907, 0.0
12673, 31.40038008951892, 73.91504748274053, 0.0
12674, 32.57801651258539, 73.53882488309914, 0.0
12675, 53.91433926990078, 71.6896658501626, 0.0
12676, 52.77358132241599, 72.5911222568002, 0.0
12677, 51.85693433373916, 71.387937424972, 0.0
12678, 52.88563680181997, 71.53880163756729, 0.0
12679, 53.68789724249763, 73.78932009320027, 0.0
12680, 51.63515444352637, 73.49756565886594, 0.0
12681, 52.66152584301199, 73.6434428760331, 0.0
12682, 50.71850745484954, 72.29438082703773, 0.0
12683, 50.60878304404073, 73.35168844169876, 0.0
12684, 50.82823186565834, 71.23707321237669, 0.0
12685, 61.27548879637381, 112.1105431718189, 0.0
12686, 60.99982645923413, 110.8217004252999, 0.0
12687, 62.32797480452385, 110.6303142733123, 0.0
12688, 61.80173180044883, 111.3704287225656, 0.0
12689, 60.22300278822379, 113.5907720703255, 0.0
12690, 59.95346650792482, 112.2873124089182, 0.0
12691, 60.74924579229879, 112.8506576210722, 0.0
12692, 58.63757027631656, 112.4494647311293, 0.0
12693, 58.36190793917687, 111.1606219846102, 0.0
12694, 59.67780417078514, 110.9984696623992, 0.0
12695, 59.15768722355084, 111.7239671967642, 0.0
12696, 59.39601577680473, 109.7242438307684, 0.0
12697, 60.71803806525372, 109.5474745936691, 0.0
12698, 60.19792111801942, 110.2729721280342, 0.0
12699, 44.06432018826378, 79.57301392914798, 0.0
12700, 43.19007187954356, 81.2661348495093, 0.0
12701, 41.77943187978681, 80.59508569350794, 0.0
12702, 42.92187603402529, 80.08404981132796, 0.0
12703, 44.68815026832452, 81.94983956755226, 0.0
12704, 43.72646357058009, 83.63030492587197, 0.0
12705, 42.22838518179913, 82.94660020782902, 0.0
12706, 43.45826772506183, 82.44821988769064, 0.0
12707, 41.17926009503048, 84.61441000410713, 0.0
12708, 39.76862009527373, 83.94336084810575, 0.0
12709, 40.81774518204237, 82.27555105182765, 0.0
12710, 40.99850263853642, 83.44498052796739, 0.0
12711, 39.49454357130983, 81.61715745786788, 0.0
12712, 40.63698772554832, 81.10612157568791, 0.0
12713, 49.94188772884548, 114.749210996399, 0.0
12714, 48.42197138312154, 115.3342415915528, 0.0
12715, 47.95686828613852, 114.1642809967167, 0.0
12716, 49.47678463186246, 113.5792504015629, 0.0
12717, 48.94937800749199, 114.4567459965579, 0.0
12718, 49.09490094023121, 116.6360174321674, 0.0
12719, 47.36715813438062, 117.0892327815427, 0.0
12720, 46.69422857727095, 115.7874569409282, 0.0
12721, 47.89456475875107, 116.2117371865478, 0.0
12722, 44.75865931129373, 116.1088570445251, 0.0
12723, 44.2935562143107, 114.938896449689, 0.0
12724, 46.22912548028793, 114.6174963460921, 0.0
12725, 45.49389239579082, 115.3631766953086, 0.0
12726, 45.97184884343157, 113.5793509970344, 0.0
12727, 47.69959164928216, 113.1261356476591, 0.0
12728, 46.96435856478504, 113.8718159968756, 0.0
12729, 58.31179296482155, 90.50383920893492, 0.0
12730, 57.06727095107232, 90.75706676285455, 0.0
12731, 56.57663480189787, 89.4602430348715, 0.0
12732, 57.8211568156471, 89.20701548095187, 0.0
12733, 57.44421388335971, 89.9820411219032, 0.0
12734, 57.48464287035727, 92.1205678692411, 0.0
12735, 55.89601316721259, 90.94361693837067, 0.0
12736, 56.70560190518277, 91.51348112185886, 0.0
12737, 55.35200138150347, 89.7266754846046, 0.0
12738, 55.03298438194943, 90.4537314243383, 0.0
12739, 56.01273442283392, 88.23009668529195, 0.0
12740, 55.68236790216869, 88.97838608494828, 0.0
12741, 61.31569265183934, 118.2911147370849, 0.0
12742, 60.89923200164357, 117.1434866496679, 0.0
12743, 62.01100201324074, 116.9050745879457, 0.0
12744, 62.42746266343651, 118.0527026753627, 0.0
12745, 61.66334733254004, 117.5980946625153, 0.0
12746, 59.65373895399647, 117.3805175247991, 0.0
12747, 59.37100133985062, 116.234270623973, 0.0
12748, 60.61649438749772, 115.9972397488418, 0.0
12749, 60.1351166707471, 116.6888786368204, 0.0
12750, 60.46747980940181, 114.8523740346068, 0.0
12751, 61.7282643990949, 115.7588276871196, 0.0
12752, 61.09787210424835, 115.3056008608632, 0.0
12753, 62.98904898878799, 116.6652813396325, 0.0
12754, 62.35865669394144, 116.212054513376, 0.0
12755, 54.00835730783228, 79.12888733579308, 0.0
12756, 54.81814876108108, 80.32201948751712, 0.0
12757, 53.71918223330387, 81.10197605122379, 0.0
12758, 52.90939078005508, 79.90884389949974, 0.0
12759, 53.86376977056807, 80.11543169350843, 0.0
12760, 55.93309369170884, 79.50335006563387, 0.0
12761, 56.72690674210708, 80.7351950755345, 0.0
12762, 55.61196181147931, 81.55386449741776, 0.0
12763, 55.77252775159408, 80.52860728152582, 0.0
12764, 56.38979645902698, 82.824422365495, 0.0
12765, 54.51299528370211, 82.33382106112443, 0.0
12766, 55.45139587136455, 82.5791217133097, 0.0
12767, 52.63619410837723, 81.84321975675385, 0.0
12768, 53.57459469603967, 82.08852040893915, 0.0
12769, 65.99368968528064, 73.34602492626792, 0.0
12770, 66.40049790228571, 74.38763393972366, 0.0
12771, 65.41130661820924, 74.9702725477096, 0.0
12772, 65.70249815174495, 74.15814873698876, 0.0
12773, 67.3314358409671, 73.59358507950034, 0.0
12774, 67.79649740336723, 74.84660434519344, 0.0
12775, 66.86555946468583, 75.64065320541677, 0.0
12776, 67.09849765282647, 74.61711914245853, 0.0
12777, 67.38887437248101, 77.10508272334727, 0.0
12778, 66.39968308840457, 77.68772133133321, 0.0
12779, 65.87636818060938, 76.22329181340271, 0.0
12780, 66.6326212765452, 76.66418726837499, 0.0
12781, 64.82892355113785, 76.59452016915128, 0.0
12782, 65.12011508467354, 75.78239635843045, 0.0
12783, 45.86570117392864, 87.05590346960724, 0.0
12784, 44.37635743160673, 86.70527929738654, 0.0
12785, 44.79608237225436, 85.3431041977396, 0.0
12786, 46.28542611457627, 85.69372836996033, 0.0
12787, 45.33089177309149, 86.19950383367345, 0.0
12788, 44.16934408848579, 88.07660301343049, 0.0
12789, 42.46728874863719, 87.71683022481275, 0.0
12790, 42.67430209175814, 86.3455065087688, 0.0
12791, 43.42182309012196, 87.21105476109966, 0.0
12792, 40.75953515438285, 85.97658510375405, 0.0
12793, 43.09402703240576, 84.98333140912187, 0.0
12794, 41.9267810933943, 85.47995825643795, 0.0
12795, 45.42851891042869, 83.9900777144897, 0.0
12796, 44.26127297141723, 84.48670456180578, 0.0
12797, 61.01023439047466, 79.03763631224058, 0.0
12798, 61.14879460753534, 77.27002055756782, 0.0
12799, 62.17200178383651, 77.22896042010706, 0.0
12800, 62.03344156677584, 78.99657617477982, 0.0
12801, 61.59111808715559, 78.13329836617382, 0.0
12802, 60.30388818169141, 77.15398552934909, 0.0
12803, 61.10905407413876, 75.65949996857456, 0.0
12804, 60.70647112791509, 76.40674274896183, 0.0
12805, 62.13226125043994, 75.61843983111382, 0.0
12806, 61.51163702036243, 74.91225718818734, 0.0
12807, 63.37350971059494, 77.0308051169668, 0.0
12808, 62.75288548051744, 76.32462247404031, 0.0
12809, 40.29950493751126, 120.5460909881259, 0.0
12810, 41.08146068122822, 119.4086334689152, 0.0
12811, 42.15798401515311, 120.0617312514798, 0.0
12812, 41.37602827143615, 121.1991887706905, 0.0
12813, 41.22874447633219, 120.3039111198029, 0.0
12814, 40.03164886013285, 119.0383955499405, 0.0
12815, 40.78689309102029, 117.6180781671399, 0.0
12816, 41.83670491211567, 117.9883160861146, 0.0
12817, 40.93417688612425, 118.5133558180275, 0.0
12818, 42.56523763017361, 116.2851388397241, 0.0
12819, 43.6417609640985, 116.9382366222887, 0.0
12820, 42.91322824604056, 118.6414138686792, 0.0
12821, 42.73923293810709, 117.4632763542017, 0.0
12822, 44.01646309279496, 119.5773715148337, 0.0
12823, 43.26121886190751, 120.9976888976343, 0.0
12824, 43.08722355397403, 119.8195513831567, 0.0
12825, 47.20521671233119, 121.1883971511313, 0.0
12826, 46.16928907616069, 119.9681945441007, 0.0
12827, 47.28618742335591, 119.138814966337, 0.0
12828, 47.24570206784355, 120.1636060587342, 0.0
12829, 45.20428167553919, 120.9940916911146, 0.0
12830, 44.98147049341645, 118.5514743678198, 0.0
12831, 45.09287608447782, 119.7727830294672, 0.0
12832, 46.09836884061168, 117.7220947900562, 0.0
12833, 44.8700649023551, 117.3301657061724, 0.0
12834, 47.32667277886826, 118.1140238739399, 0.0
12835, 28.21602633376065, 115.4733254876659, 0.0
12836, 29.38849999520404, 114.5670562967076, 0.0
12837, 30.38750780764424, 115.7424995142882, 0.0
12838, 29.21503414620086, 116.6487687052465, 0.0
12839, 29.30176707070245, 115.6079125009771, 0.0
12840, 28.39711959189663, 113.357729448116, 0.0
12841, 29.56196584420722, 112.4853438881687, 0.0
12842, 30.55334624751463, 113.6946707367603, 0.0
12843, 29.47523291970563, 113.5262000924382, 0.0
12844, 31.71056509069243, 112.8561688078239, 0.0
12845, 31.55235405995483, 114.8701139543409, 0.0
12846, 31.63145957532363, 113.8631413810824, 0.0
12847, 31.39414302921723, 116.8840591008579, 0.0
12848, 31.47324854458603, 115.8770865275994, 0.0
12849, 58.06221904686679, 116.3236741033883, 0.0
12850, 57.83382862456146, 115.0466265662722, 0.0
12851, 59.14261091754529, 114.9572230868569, 0.0
12852, 58.60241498220604, 115.6404485951226, 0.0
12853, 56.54113293045031, 115.1205844728526, 0.0
12854, 56.29665590927229, 113.8589825085713, 0.0
12855, 57.58935160338343, 113.7850246019909, 0.0
12856, 57.06524226691687, 114.4528045374217, 0.0
12857, 57.32878798333273, 112.5388682105445, 0.0
12858, 58.89813389636727, 113.6956211225756, 0.0
12859, 58.11346093985, 113.1172446665601, 0.0
12860, 59.68280685288454, 114.2739975785912, 0.0
12861, 70.95323906238391, 84.09762705254235, 0.0
12862, 69.96414737861336, 83.4871990844883, 0.0
12863, 70.67467190611035, 81.50001069342466, 0.0
12864, 70.81395548424713, 82.7988188729835, 0.0
12865, 70.15297148345802, 85.90430010562255, 0.0
12866, 71.09252264052068, 85.39643523210118, 0.0
12867, 69.16387979968746, 85.29387213756851, 0.0
12868, 69.21342032639535, 86.41216497914394, 0.0
12869, 69.0647987462717, 83.05728645441766, 0.0
12870, 69.11433927297959, 84.17557929599309, 0.0
12871, 69.66094081907683, 93.78174400335243, 0.0
12872, 70.87261082845598, 94.58299226110992, 0.0
12873, 70.04171022625168, 95.94823239565845, 0.0
12874, 69.85132552266425, 94.86498819950543, 0.0
12875, 70.52091628091483, 92.44027763039048, 0.0
12876, 69.47055611548942, 92.69849980719941, 0.0
12877, 72.62163661176567, 91.92383327677263, 0.0
12878, 71.73258629029397, 93.24152588814799, 0.0
12879, 71.57127644634025, 92.18205545358157, 0.0
12880, 72.91518144003943, 94.01900038431893, 0.0
12881, 72.05520597820144, 95.36046675728086, 0.0
12882, 71.8938961342477, 94.30099632271444, 0.0
12883, 45.77541617103495, 88.2227267296, 0.0
12884, 45.64023766611737, 89.27663947176151, 0.0
12885, 44.90479087730158, 88.676621242596, 0.0
12886, 47.44512478459387, 88.57598853326448, 0.0
12887, 46.65541297926125, 87.81594600143586, 0.0
12888, 47.29120325069044, 89.53567370576229, 0.0
12889, 48.23247669236108, 89.31207063310265, 0.0
12890, 46.36869545433293, 89.8536180549305, 0.0
12891, 47.3673485207331, 59.49014714054248, 0.0
12892, 48.626085426708, 58.55234589904909, 0.0
12893, 48.57219859672365, 59.71233457248988, 0.0
12894, 44.95764836875198, 59.04577227664767, 0.0
12895, 46.3639934008342, 58.04603309595914, 0.0
12896, 46.16249844474254, 59.26795970859507, 0.0
12897, 45.50824640704262, 56.53998111218064, 0.0
12898, 46.76698331301753, 55.60217987068725, 0.0
12899, 47.6227303068091, 57.10823185446574, 0.0
12900, 46.56548835692585, 56.82410648332319, 0.0
12901, 48.7338590866767, 56.23236855216749, 0.0
12902, 48.67997225669235, 57.39235722560828, 0.0
12903, 39.13598453477981, 131.1659144703792, 0.0
12904, 38.17792365300801, 131.7961179654754, 0.0
12905, 37.11697949540061, 130.7424323966228, 0.0
12906, 38.12648201509021, 130.954173433501, 0.0
12907, 40.0650287631633, 132.2924552851813, 0.0
12908, 40.14548705446941, 131.3776555072575, 0.0
12909, 39.90411218055109, 134.122054841029, 0.0
12910, 39.1069678813915, 132.9226587802775, 0.0
12911, 39.98457047185719, 133.2072550631052, 0.0
12912, 38.28080692884359, 133.4800070294241, 0.0
12913, 37.3517627004601, 132.3534662146221, 0.0
12914, 38.2293652909258, 132.6380624974498, 0.0
12915, 73.32246253700717, 99.12188441471923, 0.0
12916, 72.04742558440284, 98.51690202893299, 0.0
12917, 72.6888342576043, 97.24117558600004, 0.0
12918, 73.96387121020862, 97.84615797178628, 0.0
12919, 73.00564839730573, 98.18153000035964, 0.0
12920, 71.43836695324936, 99.820287944789, 0.0
12921, 70.74003858975053, 97.88426017022371, 0.0
12922, 71.08920277149994, 98.85227405750635, 0.0
12923, 71.38144726295198, 96.60853372729076, 0.0
12924, 70.39087440800108, 96.91624628294107, 0.0
12925, 73.36259297285376, 95.99310861599014, 0.0
12926, 72.37202011790286, 96.30082117164045, 0.0
12927, 38.6172983378995, 82.7212729045019, 0.0
12928, 37.70784327473311, 81.74362382925584, 0.0
12929, 38.60119342302147, 81.68039064356186, 0.0
12930, 38.64950816765554, 84.80303742638199, 0.0
12931, 37.49818641028131, 83.58094948277812, 0.0
12932, 38.63340325277752, 83.76215516544195, 0.0
12933, 36.13720778845529, 84.19618719269656, 0.0
12934, 35.22775272528889, 83.21853811745049, 0.0
12935, 36.58873134711492, 82.60330040753206, 0.0
12936, 36.3629695677851, 83.39974380011431, 0.0
12937, 35.92114297815637, 81.87009020064377, 0.0
12938, 36.81449312644474, 81.8068570149498, 0.0
12939, 60.53487660149252, 148.7729780586956, 0.0
12940, 59.46266528590188, 147.6680837619838, 0.0
12941, 60.57554665559989, 147.585986191496, 0.0
12942, 59.38383090198915, 150.0157305514246, 0.0
12943, 60.49420654738514, 149.9599699258952, 0.0
12944, 57.16307961119718, 150.1272518024832, 0.0
12945, 58.31161958639851, 148.9108362547127, 0.0
12946, 58.27345525659316, 150.0714911769539, 0.0
12947, 57.23690254650585, 147.8322789029592, 0.0
12948, 58.34978391620386, 147.7501813324715, 0.0
12949, 65.07621819904763, 78.17103930760891, 0.0
12950, 63.62080435850472, 78.60732425542446, 0.0
12951, 64.22486395482127, 77.60092221228787, 0.0
12952, 66.7789266875003, 79.31127349825101, 0.0
12953, 65.45546179814338, 79.79459147452673, 0.0
12954, 65.92757244327396, 78.74115640292996, 0.0
12955, 65.9666543484251, 81.46517666990471, 0.0
12956, 64.51124050788219, 81.90146161772023, 0.0
12957, 64.00004795760047, 80.23087642234226, 0.0
12958, 64.98335115301278, 80.84802654612349, 0.0
12959, 62.41268516587159, 80.62012834169764, 0.0
12960, 63.01674476218817, 79.61372629856106, 0.0
12961, 76.76845423575256, 91.21560680539076, 0.0
12962, 75.81220324208368, 92.47273738834254, 0.0
12963, 74.69504542375911, 91.5697200410817, 0.0
12964, 75.73174982975583, 91.39266342323623, 0.0
12965, 76.88514839253557, 93.3974150098255, 0.0
12966, 75.9731100667394, 94.63288531855517, 0.0
12967, 74.90016491628751, 93.70820769707221, 0.0
12968, 75.89265665441154, 93.55281135344886, 0.0
12969, 74.032339258364, 94.92201773157977, 0.0
12970, 73.78300709796292, 92.80519034981137, 0.0
12971, 73.90767317816346, 93.86360404069558, 0.0
12972, 73.65834101776238, 91.74677665892716, 0.0
12973, 27.44133836506964, 97.55325713067509, 0.0
12974, 25.81094028665656, 97.79154365105171, 0.0
12975, 25.52767844792884, 96.54962760052021, 0.0
12976, 26.48450840649924, 97.05144236559765, 0.0
12977, 25.76845686764472, 99.0429158544185, 0.0
12978, 24.4638040469712, 99.27174622195982, 0.0
12979, 24.50628746598303, 98.02037401859303, 0.0
12980, 25.13737216681388, 98.53164493650577, 0.0
12981, 23.52737990304906, 98.23974823329905, 0.0
12982, 24.22302562725531, 96.77845796806153, 0.0
12983, 23.87520276515218, 97.50910310068029, 0.0
12984, 24.57084848935844, 96.04781283544278, 0.0
12985, 40.98808213625848, 92.96217978362519, 0.0
12986, 39.76632962110098, 93.43011911762639, 0.0
12987, 39.66904621992968, 92.23774466250475, 0.0
12988, 40.32856417809408, 92.59996222306498, 0.0
12989, 41.04564580293543, 94.10623813557154, 0.0
12990, 41.6289888105084, 93.30912345979286, 0.0
12991, 39.90377556463955, 94.62755310222732, 0.0
12992, 40.54228146566376, 94.95679285746888, 0.0
12993, 38.58429684043783, 93.94637455480287, 0.0
12994, 39.24403620253869, 94.2869638285151, 0.0
12995, 56.34309964614499, 75.43265570507569, 0.0
12996, 55.55187612119884, 74.2172094285404, 0.0
12997, 56.62463147495389, 73.42965248734527, 0.0
12998, 56.48386556054944, 74.43115409621049, 0.0
12999, 54.49748403457903, 75.0369833781713, 0.0
13000, 54.74228932911743, 72.96954614356937, 0.0
13001, 54.61988668184824, 74.00326476087034, 0.0
13002, 54.98709462365584, 70.90210890896743, 0.0
13003, 55.81504468287248, 72.18198920237421, 0.0
13004, 54.86469197638662, 71.9358275262684, 0.0
13005, 56.90616330376278, 71.42664926961481, 0.0
13006, 56.76539738935833, 72.42815087848003, 0.0
13007, 82.1972797930413, 127.8347266137529, 0.0
13008, 83.30877344929836, 129.057395920363, 0.0
13009, 82.15381737739054, 129.0717032889615, 0.0
13010, 83.38253040245306, 126.5784998600577, 0.0
13011, 82.24074220869205, 126.5977499385444, 0.0
13012, 84.49402405871012, 127.8011691666678, 0.0
13013, 84.52431859621407, 126.559249781571, 0.0
13014, 84.46372952120618, 129.0430885517646, 0.0
13015, 62.89685969866225, 95.94732055199779, 0.0
13016, 61.48719691516693, 95.52769295290324, 0.0
13017, 62.04140697906406, 93.52462706883082, 0.0
13018, 62.46913333886314, 94.7359738104143, 0.0
13019, 63.6580848479426, 98.38875706328975, 0.0
13020, 62.15295698313608, 97.78687533638819, 0.0
13021, 63.27747227330242, 97.16803880764377, 0.0
13022, 61.21936161598087, 99.46291902109658, 0.0
13023, 60.8375217699586, 97.34850470916865, 0.0
13024, 61.05240212539053, 98.40335197123204, 0.0
13025, 60.17299921298282, 95.2903194816157, 0.0
13026, 60.52830013663272, 96.31242309145907, 0.0
13027, 21.41143557427084, 80.83934689616275, 0.0
13028, 22.17636452926818, 82.60138455858275, 0.0
13029, 20.80667995824569, 83.24925627321593, 0.0
13030, 21.10905776625827, 82.04430158468934, 0.0
13031, 23.67609260773019, 82.2706366176572, 0.0
13032, 22.81124997682602, 84.0462984472951, 0.0
13033, 23.2436712922781, 83.15846753247615, 0.0
13034, 21.94640734592185, 85.821960276933, 0.0
13035, 21.44156540580352, 84.6941701619283, 0.0
13036, 22.37882866137393, 84.93412936211405, 0.0
13037, 20.20192434222054, 85.65916565026912, 0.0
13038, 20.50430215023312, 84.45421096174255, 0.0
13039, 29.30374196264935, 72.86304762637101, 0.0
13040, 30.53505696816219, 72.38051675464493, 0.0
13041, 30.35206102608414, 73.38904755455577, 0.0
13042, 27.20710383577978, 71.8110477700015, 0.0
13043, 28.6644593149656, 71.37847243040588, 0.0
13044, 28.25542289921457, 72.33704769818625, 0.0
13045, 28.25121714095483, 69.94385276657124, 0.0
13046, 29.48253214646767, 69.46132189484513, 0.0
13047, 29.89577432047844, 70.8959415586798, 0.0
13048, 29.07349573071664, 70.41989716262552, 0.0
13049, 30.9010488523183, 70.36345515482321, 0.0
13050, 30.71805291024025, 71.37198595473407, 0.0
13051, 35.32832660686442, 93.75194674368177, 0.0
13052, 35.907167133092, 95.06592707827977, 0.0
13053, 34.65739891816921, 95.70135862748668, 0.0
13054, 34.99286276251681, 94.72665268558423, 0.0
13055, 37.13739030274941, 94.45110858186189, 0.0
13056, 36.50555270458496, 96.35929436008873, 0.0
13057, 36.82147150366718, 95.40520147097533, 0.0
13058, 35.25578448966216, 96.99472590929564, 0.0
13059, 36.18963390550274, 97.31338724920215, 0.0
13060, 34.32193507382159, 96.67606456938913, 0.0
13061, 35.46411314766092, 103.2940584715405, 0.0
13062, 34.19542025999502, 103.8485825287986, 0.0
13063, 33.60992045881147, 102.6196639507778, 0.0
13064, 34.53701680323619, 102.9568612111591, 0.0
13065, 34.77186521865568, 105.0963273979322, 0.0
13066, 33.51222717351268, 105.6320251640776, 0.0
13067, 32.93578221485203, 104.384280294944, 0.0
13068, 33.85382371675386, 104.7403038464381, 0.0
13069, 31.68519901223194, 104.9011517699766, 0.0
13070, 32.35028241366847, 103.1553617169232, 0.0
13071, 32.01774071295021, 104.0282567434499, 0.0
13072, 32.68282411438674, 102.2824666903965, 0.0
13073, 33.61968413577826, 82.19001711780126, 0.0
13074, 34.87436499810433, 82.01585264779996, 0.0
13075, 34.42371843053358, 82.70427761762588, 0.0
13076, 32.01161554626763, 81.16149611815204, 0.0
13077, 33.4741992908677, 80.95892962530559, 0.0
13078, 32.81564984102295, 81.67575661797665, 0.0
13079, 33.53661732823116, 79.69944010996478, 0.0
13080, 34.72888015319376, 80.78476515530429, 0.0
13081, 34.13274874071246, 80.24210263263453, 0.0
13082, 35.32501156567507, 81.32742767797403, 0.0
13083, 55.30790025521415, 76.255144331396, 0.0
13084, 54.25292067120565, 77.0829353569822, 0.0
13085, 54.37520235289234, 76.05995936757675, 0.0
13086, 57.17329605985776, 76.64551425903448, 0.0
13087, 56.13809666892692, 77.46800288535479, 0.0
13088, 56.24059815753596, 76.45032929521524, 0.0
13089, 56.98807327571734, 78.67555904004766, 0.0
13090, 55.08311708491842, 78.29579391094099, 0.0
13091, 56.03559518031788, 78.48567647549433, 0.0
13092, 54.13063898951896, 78.10591134638764, 0.0
13093, 39.17755498559622, 135.8319833284166, 0.0
13094, 38.60461783094753, 134.5734893196063, 0.0
13095, 39.54083358307366, 134.9770190847228, 0.0
13096, 38.45099779064135, 137.5419118158043, 0.0
13097, 37.62893438344789, 136.1184060883659, 0.0
13098, 38.81427638811878, 136.6869475721105, 0.0
13099, 35.8311875287548, 136.2398171296872, 0.0
13100, 35.2582503741061, 134.9813231208769, 0.0
13101, 37.0559972287992, 134.8599120795557, 0.0
13102, 36.443592378777, 135.5498646046215, 0.0
13103, 36.73218632669526, 133.7664297893735, 0.0
13104, 37.66840207882139, 134.1699595544899, 0.0
13105, 51.8147999363052, 80.77172055790098, 0.0
13106, 50.93777723019316, 79.69325401145002, 0.0
13107, 51.92358400512412, 79.8010489554749, 0.0
13108, 51.59723179866737, 82.71306376275314, 0.0
13109, 50.77583762659533, 81.64156456390026, 0.0
13110, 51.70601586748628, 81.74239216032706, 0.0
13111, 49.79250385092546, 82.5183759174976, 0.0
13112, 48.91548114481343, 81.43990937104665, 0.0
13113, 49.8988149204833, 80.5630980174493, 0.0
13114, 49.84565938570438, 81.54073696747344, 0.0
13115, 48.96616368033126, 79.4776641234003, 0.0
13116, 49.95197045526221, 79.58545906742516, 0.0
13117, 55.42861107155031, 51.70063526246315, 0.0
13118, 56.36912955486048, 50.6283791919641, 0.0
13119, 56.52158981248941, 51.77909473672341, 0.0
13120, 54.16469700754963, 50.49138921021576, 0.0
13121, 54.3356323306112, 51.62217578820291, 0.0
13122, 55.1052154908598, 49.41913313971671, 0.0
13123, 53.99376168448806, 49.36060263222862, 0.0
13124, 56.21666929723153, 49.47766364720479, 0.0
13125, 30.31858446065835, 79.64353894304901, 0.0
13126, 31.96237992246834, 79.5894943842612, 0.0
13127, 31.16510000346299, 80.40251753060053, 0.0
13128, 30.33890689290622, 77.90754692466675, 0.0
13129, 29.4720689178537, 78.8845603554975, 0.0
13130, 32.07258284301125, 75.95352006300527, 0.0
13131, 31.98270235471621, 77.85350236587894, 0.0
13132, 31.20574486795873, 76.93053349383601, 0.0
13133, 33.55693976047903, 77.96344809158252, 0.0
13134, 32.75965984147368, 78.77647123792185, 0.0
13135, 30.08306526909649, 47.21527314928034, 0.0
13136, 31.18288409490862, 48.61609025570642, 0.0
13137, 29.98085855812658, 49.80541219713498, 0.0
13138, 30.03196191361154, 48.51034267320766, 0.0
13139, 31.30882276494151, 46.00351223200887, 0.0
13140, 30.13416862458145, 45.920203625353, 0.0
13141, 32.40864159075363, 47.40432933843496, 0.0
13142, 32.48347690530157, 46.08682083866473, 0.0
13143, 32.25897096165776, 50.03934633797543, 0.0
13144, 32.33380627620569, 48.7218378382052, 0.0
13145, 60.21654111028186, 91.98754532297693, 0.0
13146, 58.74040535053697, 92.05933315721587, 0.0
13147, 59.2641670375517, 91.24569226595591, 0.0
13148, 60.34489793975399, 93.60696802528349, 0.0
13149, 61.12897404467296, 92.75608619590386, 0.0
13150, 58.94864445668723, 93.62538022771054, 0.0
13151, 59.58205529387696, 94.44650033273655, 0.0
13152, 58.23525494723098, 92.85770016406354, 0.0
13153, 37.3100648053527, 112.3056681484252, 0.0
13154, 37.50956690398198, 110.8219788976213, 0.0
13155, 38.67256351055683, 110.7791347964204, 0.0
13156, 38.47306141192755, 112.2628240472243, 0.0
13157, 37.99131415795476, 111.5424014724228, 0.0
13158, 36.52305051165185, 110.738315250319, 0.0
13159, 36.54607239603642, 109.3811337480184, 0.0
13160, 37.53258878836655, 109.4647973953207, 0.0
13161, 37.0278196500092, 110.1015563228199, 0.0
13162, 37.37913045850641, 108.2341236415233, 0.0
13163, 38.54212706508126, 108.1912795403224, 0.0
13164, 38.6955853949414, 109.4219532941198, 0.0
13165, 38.03735792672391, 108.8280384678215, 0.0
13166, 40.03506221576097, 109.2526014444157, 0.0
13167, 40.0120403313764, 110.6097829467163, 0.0
13168, 39.35381286315891, 110.0158681204181, 0.0
13169, 63.14850081178457, 82.50291956619307, 0.0
13170, 61.80494490461115, 83.23063924339682, 0.0
13171, 61.06912925869817, 81.34784801890139, 0.0
13172, 62.10881503524137, 81.92538379254724, 0.0
13173, 63.86513266877336, 84.25944906195755, 0.0
13174, 64.18818658832778, 83.0804553398389, 0.0
13175, 62.52157676159993, 84.98716873916132, 0.0
13176, 63.54207874921894, 85.43844278407622, 0.0
13177, 60.48057278636192, 84.0846206493315, 0.0
13178, 61.50107477398092, 84.53589469424642, 0.0
13179, 72.70267833242741, 100.4164092314788, 0.0
13180, 72.06459549245325, 101.7147367822655, 0.0
13181, 71.7514812228513, 100.7675123635273, 0.0
13182, 74.60507255157961, 99.71420296738171, 0.0
13183, 73.98528834699987, 101.0087277841412, 0.0
13184, 73.65387544200351, 100.0653060994302, 0.0
13185, 75.28619699696672, 101.5972436027764, 0.0
13186, 74.64811415699256, 102.8955711535632, 0.0
13187, 73.3472055070257, 102.307055334928, 0.0
13188, 74.31670125199621, 101.9521494688522, 0.0
13189, 72.69082403165714, 103.6091856197421, 0.0
13190, 72.3777097620552, 102.6619612010038, 0.0
13191, 21.85409634445491, 151.6074926487838, 0.0
13192, 20.6887123185169, 152.8020951009943, 0.0
13193, 20.66603342963537, 151.5661413106519, 0.0
13194, 23.06979491764272, 152.8832039568118, 0.0
13195, 23.04215925927445, 151.6488439869156, 0.0
13196, 21.9044108917047, 154.0778064090224, 0.0
13197, 23.09743057601099, 154.117563926708, 0.0
13198, 20.71139120739841, 154.0380488913368, 0.0
13199, 28.55474370299628, 97.66937289898567, 0.0
13200, 28.18264179538384, 99.18003745251757, 0.0
13201, 27.0692364574572, 99.06392168420697, 0.0
13202, 27.81199008022674, 98.36664729159634, 0.0
13203, 29.10867288142465, 99.39126315935026, 0.0
13204, 27.99791413965724, 100.5955920675273, 0.0
13205, 28.55329351054095, 99.99342761343881, 0.0
13206, 26.88715539788982, 101.7999209757044, 0.0
13207, 26.88450880173059, 100.4794762992168, 0.0
13208, 27.44253476877353, 101.1977565216159, 0.0
13209, 25.58372921191812, 100.4584704694283, 0.0
13210, 26.32648283468766, 99.76119607681763, 0.0
13211, 68.93910734293371, 111.2335948449701, 0.0
13212, 70.03824871037205, 112.1915430398414, 0.0
13213, 68.63948543873684, 113.9289699717668, 0.0
13214, 68.78929639083528, 112.5812824083685, 0.0
13215, 70.18097747866113, 109.6601934171964, 0.0
13216, 69.08891829503216, 109.8859072815717, 0.0
13217, 72.3650958459191, 109.2087656884458, 0.0
13218, 71.28011884609947, 110.6181416120677, 0.0
13219, 71.27303666229012, 109.4344795528211, 0.0
13220, 72.53615334944558, 111.4120643027873, 0.0
13221, 71.29428321371816, 112.9854657305609, 0.0
13222, 71.28720102990881, 111.8018036713143, 0.0
13223, 48.45341529943548, 112.4664829692767, 0.0
13224, 49.25066650993749, 111.7415884015999, 0.0
13225, 50.27403584236446, 112.8543558338861, 0.0
13226, 49.36372557089997, 112.6604194015814, 0.0
13227, 46.65153778587496, 111.9843825336018, 0.0
13228, 47.4053614360283, 111.3247298552194, 0.0
13229, 47.55247654265523, 112.2254327514392, 0.0
13230, 46.3326230416409, 110.1539910593911, 0.0
13231, 48.18386961716184, 110.694062858608, 0.0
13232, 47.25125732940232, 110.447066605561, 0.0
13233, 50.09134528078815, 110.9514519446287, 0.0
13234, 49.13524755245754, 110.8467178340759, 0.0
13235, 62.2572973104608, 129.2301362841882, 0.0
13236, 61.33680303980883, 130.2151265623808, 0.0
13237, 60.30648953736828, 129.0682130256048, 0.0
13238, 61.28189342391454, 129.1491746548965, 0.0
13239, 63.27025726809403, 130.3353249708479, 0.0
13240, 63.23270119700707, 129.3110979134798, 0.0
13241, 62.34976299744206, 131.3203152490406, 0.0
13242, 63.30781333918101, 131.3595520282161, 0.0
13243, 60.43366231396418, 131.2418416906898, 0.0
13244, 61.39171265570312, 131.2810784698652, 0.0
13245, 58.04814697157266, 109.9104987145098, 0.0
13246, 57.85470041365145, 108.7085629078902, 0.0
13247, 59.20256921888353, 108.5223080241489, 0.0
13248, 58.62535809522809, 109.2164033693293, 0.0
13249, 56.84034909102728, 111.2188071295629, 0.0
13250, 56.52658812342305, 109.9686838594625, 0.0
13251, 57.44424803129996, 110.5646529220363, 0.0
13252, 54.83133923235593, 109.8987992656266, 0.0
13253, 56.38651719873636, 108.8466303281506, 0.0
13254, 55.62027773892102, 109.3939482551721, 0.0
13255, 57.78156826541325, 107.5548145647515, 0.0
13256, 57.09931661728044, 108.2193337292639, 0.0
13257, 71.86449855108623, 75.94959577210156, 0.0
13258, 70.70032286903157, 77.14910197285042, 0.0
13259, 69.83049797722673, 75.39810005864751, 0.0
13260, 70.9946736592814, 74.19859385789866, 0.0
13261, 70.84749826415648, 75.67384791537454, 0.0
13262, 71.60790517438187, 79.13078046598596, 0.0
13263, 70.40597207878173, 80.09961008780218, 0.0
13264, 69.49838977343144, 78.11793159466663, 0.0
13265, 70.55314747390665, 78.6243560303263, 0.0
13266, 68.25869926428587, 78.85608463755017, 0.0
13267, 68.6285648816266, 76.36692968046371, 0.0
13268, 68.44363207295623, 77.61150715900695, 0.0
13269, 68.99843049896735, 73.87777472337726, 0.0
13270, 68.81349769029698, 75.12235220192048, 0.0
13271, 36.78017845428193, 93.1867267850827, 0.0
13272, 38.22708499197035, 92.6819927580237, 0.0
13273, 37.68223764735988, 93.56655066994279, 0.0
13274, 34.97606006812603, 92.42707901536252, 0.0
13275, 36.42791191554353, 91.86185905676345, 0.0
13276, 35.87811926120398, 92.80690290022261, 0.0
13277, 36.08059068653422, 90.47650539690413, 0.0
13278, 37.52749722422264, 89.97177136984513, 0.0
13279, 37.87481845323195, 91.35712502970445, 0.0
13280, 36.97770456988309, 90.91681521330429, 0.0
13281, 39.31677968119129, 90.9128769341855, 0.0
13282, 38.77193233658082, 91.79743484610461, 0.0
13283, 44.32882168058195, 121.6359824509139, 0.0
13284, 43.63621284383869, 122.6819013367084, 0.0
13285, 42.56861002516425, 122.0436077834288, 0.0
13286, 43.44871585287309, 121.8397951171713, 0.0
13287, 44.57883672745947, 123.1140694305293, 0.0
13288, 44.01120682576987, 124.3661137757825, 0.0
13289, 43.06858294214909, 123.9339456819615, 0.0
13290, 43.82370983480428, 123.5240075562454, 0.0
13291, 42.62593197551314, 125.3921154866734, 0.0
13292, 41.5583291568387, 124.7538219333938, 0.0
13293, 42.00098012347465, 123.2956521286819, 0.0
13294, 42.31345604949389, 124.3438838076776, 0.0
13295, 40.80839836974654, 122.4512331159437, 0.0
13296, 41.6885041974554, 122.2474204496862, 0.0
13297, 76.32046523956716, 97.89454341169436, 0.0
13298, 75.47704136764301, 97.33480524953514, 0.0
13299, 76.14678765315327, 96.26371436512477, 0.0
13300, 76.2336264463602, 97.07912888840956, 0.0
13301, 74.94982863244643, 98.47996957035434, 0.0
13302, 74.49108394540522, 96.70099365096706, 0.0
13303, 74.72045628892582, 97.5904816106607, 0.0
13304, 75.16083023091548, 95.6299027665567, 0.0
13305, 74.26171160188463, 95.81150569127341, 0.0
13306, 76.05994885994633, 95.44829984183997, 0.0
13307, 71.98471333805189, 122.945015114653, 0.0
13308, 71.18211147362074, 121.7707620283314, 0.0
13309, 72.23023466241699, 120.768036294262, 0.0
13310, 72.10747400023443, 121.8565257044575, 0.0
13311, 70.89824973519538, 123.9233096021525, 0.0
13312, 71.86195267586935, 124.0335045248484, 0.0
13313, 68.97084385384746, 123.7029197567606, 0.0
13314, 70.09564787076422, 122.7490565158309, 0.0
13315, 69.9345467945214, 123.8131146794565, 0.0
13316, 69.33138642039334, 121.5992346760792, 0.0
13317, 70.41785002324985, 120.6209401885797, 0.0
13318, 70.25674894700704, 121.6849983522053, 0.0
13319, 30.71609587061948, 99.76910387278937, 0.0
13320, 31.63039882570995, 99.04165572485114, 0.0
13321, 31.51980736521688, 99.95802422950892, 0.0
13322, 29.76460513671029, 98.70076392772903, 0.0
13323, 29.91238437602206, 99.58018351606982, 0.0
13324, 30.67890809180076, 97.9733157797908, 0.0
13325, 29.61682589739852, 97.82134433938823, 0.0
13326, 31.74099028620301, 98.12528722019334, 0.0
13327, 67.02278143306646, 123.3756853385769, 0.0
13328, 68.19857422656307, 122.484756045283, 0.0
13329, 67.99681264345693, 123.5393025476687, 0.0
13330, 65.07471901228544, 123.0484509203932, 0.0
13331, 66.29349240544843, 122.1521137030092, 0.0
13332, 66.04875022267595, 123.2120681294851, 0.0
13333, 65.60718397749679, 120.9231341433513, 0.0
13334, 66.7829767709934, 120.0322048500574, 0.0
13335, 67.46928519894506, 121.2611844097153, 0.0
13336, 66.53823458822092, 121.0921592765333, 0.0
13337, 68.60209739277533, 120.3756630405115, 0.0
13338, 68.4003358096692, 121.4302095428972, 0.0
13339, 39.88777194784336, 107.9303809492574, 0.0
13340, 41.17109011962673, 107.78299325234, 0.0
13341, 41.31838038754434, 109.1052137474982, 0.0
13342, 40.60307616769385, 108.5177973483778, 0.0
13343, 38.53704578482051, 106.7021725192048, 0.0
13344, 39.8826906675826, 106.4412739281398, 0.0
13345, 39.21240886633194, 107.3162767342311, 0.0
13346, 40.0198183749787, 104.7852803810628, 0.0
13347, 41.08612656268784, 106.3472618630342, 0.0
13348, 40.53173900979133, 105.5776206439751, 0.0
13349, 42.39208158043135, 107.74911644957, 0.0
13350, 41.72049278785086, 107.0634630407144, 0.0
13351, 68.03100194600381, 115.1492479244612, 0.0
13352, 68.4855722760422, 116.9743138037356, 0.0
13353, 67.4069893584986, 117.5907263872593, 0.0
13354, 66.95241902846024, 115.7656605079849, 0.0
13355, 67.71899565225122, 116.3699871558603, 0.0
13356, 69.46883273551913, 116.6462995886441, 0.0
13357, 70.01872552362417, 118.1829670994863, 0.0
13358, 69.03546506414723, 118.5109813145778, 0.0
13359, 69.2521488998332, 117.5786404516109, 0.0
13360, 69.6806803103189, 119.7592504569877, 0.0
13361, 67.95688214660365, 119.1273938981015, 0.0
13362, 68.81878122846129, 119.4433221775446, 0.0
13363, 66.23308398288837, 118.4955373392152, 0.0
13364, 67.094983064746, 118.8114656186584, 0.0
13365, 46.21271807274766, 121.9280450265189, 0.0
13366, 45.33725807779041, 122.5699357863183, 0.0
13367, 45.2707698766648, 121.7820137387164, 0.0
13368, 47.10411582532983, 122.9597554775116, 0.0
13369, 47.15466626883051, 122.0740763143214, 0.0
13370, 47.00301493832846, 124.7311138038918, 0.0
13371, 46.22865583037259, 123.6016462373109, 0.0
13372, 47.05356538182915, 123.8454346407017, 0.0
13373, 45.47023448004164, 124.145779881522, 0.0
13374, 45.40374627891603, 123.3578578339201, 0.0
13375, 68.99549912413394, 81.80604270146034, 0.0
13376, 68.72679929680532, 80.40564209583783, 0.0
13377, 69.70073560145784, 80.95282639463126, 0.0
13378, 67.51572654734841, 82.26123156216119, 0.0
13379, 68.29026264681005, 82.65925900828944, 0.0
13380, 67.24702672001979, 80.86083095653868, 0.0
13381, 66.74119044788675, 81.86320411603293, 0.0
13382, 67.75286299215283, 79.85845779704442, 0.0
13383, 69.9744114077354, 70.21714544823561, 0.0
13384, 68.9621327022777, 71.38412629357009, 0.0
13385, 67.91355620013037, 70.05745870909739, 0.0
13386, 68.94398380393287, 70.1373020786665, 0.0
13387, 71.00145056078574, 71.59752383116938, 0.0
13388, 71.00483901153791, 70.29698881780473, 0.0
13389, 69.98917185532804, 72.76450467650385, 0.0
13390, 70.99806211003356, 72.898058844534, 0.0
13391, 67.97139134591701, 72.49739634044349, 0.0
13392, 68.98028160062252, 72.63095050847366, 0.0
13393, 42.36657946586995, 60.69328116126177, 0.0
13394, 42.13135703547239, 59.46471466448735, 0.0
13395, 43.69030583144192, 59.55246632064392, 0.0
13396, 43.02844264865593, 60.12287374095284, 0.0
13397, 40.99754647986281, 60.78161442864873, 0.0
13398, 41.70471628308396, 61.26368858157069, 0.0
13399, 39.58320687342051, 59.81746612280482, 0.0
13400, 40.76232404946525, 59.55304793187431, 0.0
13401, 40.29037667664166, 60.29954027572678, 0.0
13402, 40.33718580910531, 58.14839651155636, 0.0
13403, 41.70621879511245, 58.06006324416939, 0.0
13404, 41.23427142228885, 58.80655558802185, 0.0
13405, 17.2397631018323, 78.89522132955075, 0.0
13406, 18.32892990217477, 77.53592094372027, 0.0
13407, 18.59050711056224, 78.84731069710222, 0.0
13408, 15.77999934443791, 77.65756664337722, 0.0
13409, 15.88901909310235, 78.9431319619993, 0.0
13410, 16.86916614478038, 76.29826625754673, 0.0
13411, 15.67097959577346, 76.37200132475515, 0.0
13412, 18.06735269378731, 76.22453119033833, 0.0
13413, 65.62162758578378, 117.1876971945744, 0.0
13414, 64.9707340086241, 116.2154709238087, 0.0
13415, 65.96157651854217, 115.9905657158968, 0.0
13416, 64.94172972026703, 119.5819601519297, 0.0
13417, 64.33027332316244, 118.274120007289, 0.0
13418, 65.28167865302541, 118.3848286732521, 0.0
13419, 63.07835624059621, 119.0249289461285, 0.0
13420, 63.67937974600276, 117.3018937365232, 0.0
13421, 63.37886799329948, 118.1634113413259, 0.0
13422, 63.97989149870605, 116.4403761317206, 0.0
13423, 70.38346010993911, 114.3579968725308, 0.0
13424, 69.7749766172061, 115.5782748252252, 0.0
13425, 69.20723102797146, 114.753622398496, 0.0
13426, 72.7359182738744, 113.5667458206003, 0.0
13427, 71.82509517009535, 114.9392769625701, 0.0
13428, 71.55968919190676, 113.9623713465656, 0.0
13429, 72.96439061920557, 115.6728102418849, 0.0
13430, 72.35590712647257, 116.8930881945793, 0.0
13431, 71.21661167736235, 116.1595549152645, 0.0
13432, 72.09050114828396, 115.9161825785747, 0.0
13433, 70.91046779567537, 117.2275796786835, 0.0
13434, 70.34272220644075, 116.4029272519543, 0.0
13435, 44.22771212637775, 49.24110223056904, 0.0
13436, 44.66661707562805, 51.22688586188898, 0.0
13437, 43.54408841562644, 51.48353845562598, 0.0
13438, 43.8859002710021, 50.36232034309751, 0.0
13439, 45.66005011175524, 51.19969675862092, 0.0
13440, 46.22805068487997, 52.95601689947192, 0.0
13441, 45.23461764875279, 52.98320600273999, 0.0
13442, 45.44733388025402, 52.09145138068045, 0.0
13443, 45.93171384575195, 54.51006265312206, 0.0
13444, 44.80918518575034, 54.76671524685905, 0.0
13445, 44.11208898875117, 53.23985859647698, 0.0
13446, 45.02190141725156, 53.87496062479952, 0.0
13447, 42.86046470487511, 53.7259746806829, 0.0
13448, 43.20227656025077, 52.60475656815443, 0.0
13449, 35.50787806478431, 77.12002157299955, 0.0
13450, 36.03162976911628, 75.78890363429336, 0.0
13451, 37.45881636908959, 76.27659505441656, 0.0
13452, 36.48334721693695, 76.69830831370805, 0.0
13453, 33.88705079086885, 76.56862392962705, 0.0
13454, 34.53240891263167, 77.54173483229103, 0.0
13455, 34.41080249520083, 75.23750599092087, 0.0
13456, 33.24169266910603, 75.59551302696306, 0.0
13457, 36.74902214739041, 74.52149191883645, 0.0
13458, 35.57991232129562, 74.87949895487866, 0.0
13459, 73.02306855401943, 105.7052043467581, 0.0
13460, 74.24066156753688, 106.434591921368, 0.0
13461, 73.3553130763817, 107.8012230737741, 0.0
13462, 73.18919081520056, 106.7532137102661, 0.0
13463, 73.85986658539554, 104.3131162315578, 0.0
13464, 72.85694629283829, 104.6571949832501, 0.0
13465, 75.86570717051002, 103.6249587281731, 0.0
13466, 75.07745959891298, 105.0425038061677, 0.0
13467, 74.86278687795277, 103.9690374798655, 0.0
13468, 76.34360307220953, 105.7973483435718, 0.0
13469, 75.50680504083343, 107.1894364587721, 0.0
13470, 75.2921323198732, 106.1159701324699, 0.0
13471, 67.50617771593153, 105.1350377815081, 0.0
13472, 66.50251232977956, 104.599244024918, 0.0
13473, 66.78662971112061, 103.614074859524, 0.0
13474, 67.14640371352607, 104.374556320516, 0.0
13475, 66.28344793821356, 105.4194394815382, 0.0
13476, 65.21472956228652, 105.048619433722, 0.0
13477, 65.43379395385253, 104.2284239771019, 0.0
13478, 65.85862094603304, 104.82393172932, 0.0
13479, 64.30002258815043, 104.0225776380596, 0.0
13480, 64.5841399694915, 103.0374084726655, 0.0
13481, 65.71791133519359, 103.2432548117078, 0.0
13482, 65.00896696167203, 103.6329162248837, 0.0
13483, 66.0670817063097, 102.0931119375398, 0.0
13484, 66.42685570871515, 102.8535933985319, 0.0
13485, 22.88952456719987, 57.42856478455864, 0.0
13486, 21.71728199462169, 56.14310726536713, 0.0
13487, 22.89379463469876, 56.13622367632334, 0.0
13488, 21.707555222577, 58.730896481092, 0.0
13489, 22.88525449970098, 58.72090589279394, 0.0
13490, 20.53531264999882, 57.44543896190048, 0.0
13491, 20.52985594545302, 58.74088706939004, 0.0
13492, 20.54076935454462, 56.14999085441091, 0.0
13493, 34.83051403564623, 86.16404864064333, 0.0
13494, 35.26846363486702, 87.5661627685986, 0.0
13495, 33.52382028283718, 88.1319100885901, 0.0
13496, 34.17716715924171, 87.1479793646167, 0.0
13497, 36.68505986365928, 85.52179579589239, 0.0
13498, 35.48386091205076, 85.18011791666993, 0.0
13499, 39.08745776687633, 86.20515155433725, 0.0
13500, 37.12300946288007, 86.92390992384765, 0.0
13501, 37.8862588152678, 85.86347367511482, 0.0
13502, 37.45105658611766, 88.40252957656239, 0.0
13503, 35.5965107581046, 89.04478242131333, 0.0
13504, 36.35976011049233, 87.9843461725805, 0.0
13505, 38.33081782945391, 100.2527794110399, 0.0
13506, 37.2833771074948, 100.8510104131261, 0.0
13507, 37.44818994558257, 99.89144331349837, 0.0
13508, 39.22255716542708, 101.584272279206, 0.0
13509, 39.18948528090446, 100.616475402482, 0.0
13510, 39.52346278058424, 103.4683567360801, 0.0
13511, 38.2693440137858, 102.1637602531671, 0.0
13512, 39.34997032784364, 102.5333035115761, 0.0
13513, 37.0479790016371, 102.7514015842564, 0.0
13514, 37.16567805456594, 101.8012059986913, 0.0
13515, 25.474370184761, 101.8492373989251, 0.0
13516, 24.07551336217498, 101.7015847647622, 0.0
13517, 24.1848723893321, 100.3108178352654, 0.0
13518, 24.82962128704655, 101.0800276170952, 0.0
13519, 25.35108276706107, 103.4369733858054, 0.0
13520, 26.11911908247545, 102.6184471807549, 0.0
13521, 23.95222594447505, 103.2893207516425, 0.0
13522, 24.58304645164668, 104.2554995908559, 0.0
13523, 22.69058493013178, 101.3569630732158, 0.0
13524, 23.32140543730342, 102.3231419124291, 0.0
13525, 60.2464210920615, 79.90724163540331, 0.0
13526, 58.999153833096, 78.85659767614413, 0.0
13527, 59.76296713150916, 77.98699235298139, 0.0
13528, 60.00469411178533, 78.94711699419236, 0.0
13529, 58.01244828645191, 79.76280149883728, 0.0
13530, 57.97477882236142, 77.76935521735452, 0.0
13531, 57.99361355440668, 78.7660783580959, 0.0
13532, 58.73859212077458, 76.89974989419179, 0.0
13533, 57.95594409031617, 76.77263207661312, 0.0
13534, 59.521240151233, 77.02686771177045, 0.0
13535, 31.01703916492084, 106.693708022209, 0.0
13536, 31.649549145698, 107.9056964006672, 0.0
13537, 30.34887931760974, 108.4862642744414, 0.0
13538, 30.68295924126529, 107.5899861483252, 0.0
13539, 32.28232511048088, 106.1462911115738, 0.0
13540, 31.35111908857639, 105.7974298960928, 0.0
13541, 34.14473715428985, 106.8440135425358, 0.0
13542, 32.91483509125804, 107.358279490032, 0.0
13543, 33.21353113238537, 106.4951523270548, 0.0
13544, 33.58272895456343, 108.5371169053512, 0.0
13545, 32.31744300900339, 109.0845338159864, 0.0
13546, 32.61613905013072, 108.2214066530092, 0.0
13547, 64.60388893641587, 101.6554046643753, 0.0
13548, 64.86258327712613, 100.2409345004148, 0.0
13549, 65.46483249171791, 101.1670232189773, 0.0
13550, 62.8820018258118, 102.6321675551713, 0.0
13551, 62.90175079273618, 101.250163746881, 0.0
13552, 63.74294538111383, 102.1437861097733, 0.0
13553, 60.96066727527059, 100.8773891850571, 0.0
13554, 63.16044513344644, 99.83569358292053, 0.0
13555, 62.06055620435852, 100.3565413839888, 0.0
13556, 64.26033406253437, 99.31484578185226, 0.0
13557, 27.18769150038266, 114.2573757047201, 0.0
13558, 26.14727981114862, 112.996112752958, 0.0
13559, 27.35670790266258, 112.0964664963539, 0.0
13560, 27.27219970152262, 113.176921100537, 0.0
13561, 25.99034026472475, 115.2023351301406, 0.0
13562, 27.1031832992427, 115.3378303089032, 0.0
13563, 24.94992857549071, 113.9410721783785, 0.0
13564, 24.8774972302068, 115.066839951378, 0.0
13565, 25.09479126605854, 111.6895366323796, 0.0
13566, 25.02235992077462, 112.815304405379, 0.0
13567, 73.5242802289871, 110.0355282487576, 0.0
13568, 74.68137426113398, 110.8932973697114, 0.0
13569, 73.69324738159247, 112.2698334237411, 0.0
13570, 73.60876380528978, 111.1526808362494, 0.0
13571, 74.5144974594497, 108.6279856340859, 0.0
13572, 73.4397966526844, 108.9183756612659, 0.0
13573, 75.6715914915966, 109.4857547550397, 0.0
13574, 75.58919826621499, 108.3375956069059, 0.0
13575, 75.83637794235977, 111.7820730513073, 0.0
13576, 75.7539847169782, 110.6339139031735, 0.0
13577, 34.63845014763783, 107.9698310916503, 0.0
13578, 35.06440067529992, 108.9591253266848, 0.0
13579, 34.00867948222552, 109.5264111403857, 0.0
13580, 34.32356481493167, 108.748121116018, 0.0
13581, 35.26822081305015, 106.413251042915, 0.0
13582, 35.76193380639813, 107.5390685920295, 0.0
13583, 34.95333548034399, 107.1915410672826, 0.0
13584, 36.95317993084432, 107.2448294064888, 0.0
13585, 36.18788433406022, 108.528362827064, 0.0
13586, 36.57053213245227, 107.8865961167764, 0.0
13587, 35.42258873727612, 109.8118962476392, 0.0
13588, 35.80523653566817, 109.1701295373516, 0.0
13589, 43.36668163509196, 114.5612151136966, 0.0
13590, 44.08223513126471, 112.8951174876569, 0.0
13591, 45.00910971048346, 113.2727988236492, 0.0
13592, 44.1878956727877, 113.9170069686729, 0.0
13593, 43.19122510577532, 112.4463069890574, 0.0
13594, 43.87091404821872, 110.8513385256248, 0.0
13595, 44.76192407370811, 111.3001490242243, 0.0
13596, 43.97657458974172, 111.8732280066408, 0.0
13597, 45.40574846242215, 109.7763097233988, 0.0
13598, 45.68879865292686, 111.6778303602166, 0.0
13599, 45.54727355767451, 110.7270700418077, 0.0
13600, 45.83032374817921, 112.6285906786255, 0.0
13601, 42.98240297128606, 57.66628482774775, 0.0
13602, 44.24974550859612, 57.1595907837515, 0.0
13603, 43.97002567001902, 58.35602855219771, 0.0
13604, 41.00715757382015, 56.2867973788478, 0.0
13605, 42.28334174999377, 55.89301896242615, 0.0
13606, 41.9947802725531, 56.97654110329778, 0.0
13607, 41.59312216756506, 54.23266872467915, 0.0
13608, 43.55068428730384, 55.38632491842991, 0.0
13609, 42.57190322743445, 54.80949682155453, 0.0
13610, 44.52946534717323, 55.96315301530527, 0.0
13611, 53.74325473231404, 110.1009178808412, 0.0
13612, 52.79980052609287, 111.2451200781642, 0.0
13613, 51.94541455002987, 110.6675262672305, 0.0
13614, 52.85132364177219, 110.4072617200324, 0.0
13615, 53.5760955909016, 111.8251629752068, 0.0
13616, 52.71073229593469, 112.9669160864209, 0.0
13617, 51.93443723112595, 112.3868731893783, 0.0
13618, 52.75526641101378, 112.1060180822925, 0.0
13619, 51.14716484741331, 113.5261772144835, 0.0
13620, 51.06130822607711, 111.7150518087809, 0.0
13621, 51.10423653674521, 112.6206145116322, 0.0
13622, 51.0207398129744, 110.83344953792, 0.0
13623, 55.2085714092304, 114.0611011237859, 0.0
13624, 54.93637575008695, 112.842072741889, 0.0
13625, 56.02446025012884, 112.6399541266744, 0.0
13626, 55.61651582967962, 113.3505276252302, 0.0
13627, 54.06453448320705, 113.1452240561884, 0.0
13628, 54.4479368577815, 111.5220116609075, 0.0
13629, 54.25623567049428, 112.3336178585479, 0.0
13630, 55.53602135782339, 111.3198930456929, 0.0
13631, 54.63963804506871, 110.710405463267, 0.0
13632, 56.43240467057807, 111.9293806281187, 0.0
13633, 43.91586836921996, 109.8821005051258, 0.0
13634, 43.81885156662477, 108.8825364978098, 0.0
13635, 44.60095049341228, 109.3506565705269, 0.0
13636, 42.52300507861295, 110.9874552941689, 0.0
13637, 42.5679593996142, 110.01821727367, 0.0
13638, 43.21943672391646, 110.4347778996474, 0.0
13639, 41.36202155360487, 110.1846600290312, 0.0
13640, 42.52431823355366, 108.938770992137, 0.0
13641, 41.94316989357927, 109.5617155105841, 0.0
13642, 43.09019268713021, 108.3344377556369, 0.0
13643, 54.5304238189397, 124.1316211950034, 0.0
13644, 53.47210787061981, 124.6651717415379, 0.0
13645, 53.64412458145288, 123.6336070550831, 0.0
13646, 56.30302229391334, 125.127649474844, 0.0
13647, 55.35295937229598, 125.5003038686957, 0.0
13648, 55.41672305642652, 124.6296353349237, 0.0
13649, 56.2837479523548, 126.708090389705, 0.0
13650, 55.22543200403491, 127.2416409362395, 0.0
13651, 54.2946434239761, 126.0338544152301, 0.0
13652, 55.28919568816545, 126.3709724024675, 0.0
13653, 53.12807444895368, 126.7283011144475, 0.0
13654, 53.30009115978675, 125.6967364279927, 0.0
13655, 82.30706402843857, 108.1651609636252, 0.0
13656, 83.49866100500653, 109.3019127719878, 0.0
13657, 82.35945219065088, 109.4266834399503, 0.0
13658, 83.42000245813398, 106.7586578731019, 0.0
13659, 82.25467586622628, 106.9036384873001, 0.0
13660, 84.61159943470193, 107.8954096814645, 0.0
13661, 84.58532905004168, 106.6136772589037, 0.0
13662, 84.6378698193622, 109.1771421040253, 0.0
13663, 59.88421932523657, 104.3966131563437, 0.0
13664, 60.06019082469517, 105.7611221155249, 0.0
13665, 58.95271721061734, 106.0557773095295, 0.0
13666, 59.43970172900359, 105.2375447514072, 0.0
13667, 61.17506734336948, 105.5361707785499, 0.0
13668, 61.34363593823161, 106.8309758807016, 0.0
13669, 60.22875941955731, 107.0559272176767, 0.0
13670, 60.70191338146339, 106.2960489981133, 0.0
13671, 60.38992510982298, 108.2810284627989, 0.0
13672, 59.04140352861786, 107.2972067790266, 0.0
13673, 59.71566431922041, 107.7891176209128, 0.0
13674, 58.38575402192976, 106.8205698215331, 0.0
13675, 34.47015959116243, 91.03107448820379, 0.0
13676, 33.98607966273281, 89.59935151261298, 0.0
13677, 35.03333517463351, 90.03792845475856, 0.0
13678, 32.83790794725664, 91.62136202793552, 0.0
13679, 33.90698400769134, 92.024220521649, 0.0
13680, 32.35382801882702, 90.18963905234472, 0.0
13681, 31.76883188682193, 91.21850353422204, 0.0
13682, 32.9388241508321, 89.16077457046742, 0.0
13683, 56.11826337229312, 58.61388880584475, 0.0
13684, 55.09970735776442, 59.62369691265356, 0.0
13685, 55.03843384680358, 58.46082728075514, 0.0
13686, 57.26716323895442, 59.95792611346471, 0.0
13687, 57.19809289778265, 58.76695033093436, 0.0
13688, 56.24860722442573, 60.96773422027353, 0.0
13689, 57.33623358012619, 61.14890189599506, 0.0
13690, 55.16098086872526, 60.78656654455199, 0.0
13691, 36.58170208575353, 140.609061950732, 0.0
13692, 38.04829611175644, 139.8340760929587, 0.0
13693, 37.84694527231398, 140.9801582315359, 0.0
13694, 35.48803510904699, 138.9052494898478, 0.0
13695, 35.31645889919309, 140.237965669928, 0.0
13696, 36.9546291350499, 138.1302636320745, 0.0
13697, 35.6596113189009, 137.5725333097675, 0.0
13698, 38.2496469511989, 138.6879939543815, 0.0
13699, 61.62052553192034, 102.5670532866018, 0.0
13700, 60.56378465656965, 102.6651157221639, 0.0
13701, 60.78618639897338, 101.7736123484798, 0.0
13702, 63.33712466392078, 104.1586549525845, 0.0
13703, 62.07564837002933, 104.0935406840151, 0.0
13704, 62.47882509792056, 103.3628541195932, 0.0
13705, 62.32603578959754, 105.4568513772968, 0.0
13706, 60.92467992380126, 104.1728600852681, 0.0
13707, 61.6253578566994, 104.8148557312825, 0.0
13708, 60.24704163804719, 103.5378534371955, 0.0
13709, 38.24639115071373, 59.01889304932251, 0.0
13710, 39.21746474009029, 58.59117556283044, 0.0
13711, 38.91479901206712, 59.41817958606366, 0.0
13712, 37.73200153774506, 57.80766405413016, 0.0
13713, 37.57798328936034, 58.61960651258136, 0.0
13714, 38.0400380345145, 56.18377913722779, 0.0
13715, 38.70307512712162, 57.3799465676381, 0.0
13716, 37.88601978612978, 56.99572159567898, 0.0
13717, 39.82279619613664, 56.93716751636401, 0.0
13718, 39.52013046811346, 57.76417153959723, 0.0
13719, 46.43288327414984, 49.20655484911244, 0.0
13720, 45.92503825084529, 50.22087501722237, 0.0
13721, 45.33029770026379, 49.22382853984074, 0.0
13722, 47.88735251440288, 50.22182606247716, 0.0
13723, 47.53546884803587, 49.18928115838413, 0.0
13724, 48.59111984713691, 52.28691587066321, 0.0
13725, 47.37950749109834, 51.2361462305871, 0.0
13726, 48.2392361807699, 51.25437096657018, 0.0
13727, 47.11451935200829, 52.21496797198564, 0.0
13728, 46.5197788014268, 51.21792149460401, 0.0
13729, 56.40285471687692, 130.8507312699295, 0.0
13730, 57.36247403524889, 129.8387001862855, 0.0
13731, 58.41825851542055, 131.0462864803097, 0.0
13732, 57.41055661614874, 130.9485088751196, 0.0
13733, 56.31702542667598, 128.6157843214002, 0.0
13734, 57.26630887344922, 127.6190828086172, 0.0
13735, 58.31175748202213, 128.8419986735025, 0.0
13736, 57.31439145434905, 128.7288914974513, 0.0
13737, 59.25070505719663, 127.8606267315806, 0.0
13738, 59.36754196219378, 130.0495849675267, 0.0
13739, 59.3091235096952, 128.9551058495537, 0.0
13740, 59.42596041469236, 131.1440640854997, 0.0
13741, 40.56703444886331, 116.5456238799182, 0.0
13742, 40.01849723155318, 115.2468230715758, 0.0
13743, 42.01670041286349, 114.9863380313817, 0.0
13744, 41.29186743086341, 115.7659809556499, 0.0
13745, 39.11736848486314, 118.1049097284546, 0.0
13746, 38.89750984270614, 117.0324554412328, 0.0
13747, 39.84220146686322, 117.3252668041864, 0.0
13748, 37.55666381170213, 117.7456335236682, 0.0
13749, 38.34897262539602, 115.7336546328905, 0.0
13750, 37.95281821854908, 116.7396440782793, 0.0
13751, 39.14128143908991, 113.7216757421128, 0.0
13752, 38.74512703224296, 114.7276651875016, 0.0
13753, 55.19500853541748, 131.8390532768196, 0.0
13754, 54.00237408826675, 130.5286691134197, 0.0
13755, 55.21022026972619, 129.5403471065296, 0.0
13756, 55.20261440257183, 130.6897001916746, 0.0
13757, 52.69348688229767, 131.5807503420706, 0.0
13758, 51.60189345965659, 130.2066069569099, 0.0
13759, 52.91078066562567, 129.154525728259, 0.0
13760, 52.80213377396166, 130.3676380351648, 0.0
13761, 51.92022826749424, 127.7166231213376, 0.0
13762, 54.11862684708511, 128.1662037213689, 0.0
13763, 53.01942755728967, 127.9414134213533, 0.0
13764, 55.21782613688055, 128.3909940213845, 0.0
13765, 38.23832135571428, 105.3565930712844, 0.0
13766, 37.74196576131981, 104.0396694263017, 0.0
13767, 38.88089206814927, 104.4124749036822, 0.0
13768, 36.65445550173809, 105.8992499585685, 0.0
13769, 37.5957506432793, 106.3007112388866, 0.0
13770, 36.15809990734363, 104.5823263135857, 0.0
13771, 35.71316036019688, 105.4977886782503, 0.0
13772, 36.60303945449036, 103.6668639489211, 0.0
13773, 39.6110315176535, 53.32042371519511, 0.0
13774, 38.42667013996998, 53.97079385271132, 0.0
13775, 37.62894086774195, 52.40817870571107, 0.0
13776, 38.61998619269772, 52.86430121045309, 0.0
13777, 40.34231662711839, 54.83008665207943, 0.0
13778, 40.60207684260928, 53.77654621993713, 0.0
13779, 39.15795524943488, 55.48045678959564, 0.0
13780, 40.08255641162751, 55.88362708422173, 0.0
13781, 37.3087529250496, 54.67411620034348, 0.0
13782, 38.23335408724223, 55.07728649496956, 0.0
13783, 55.88361344733897, 136.7719180517557, 0.0
13784, 54.64545413162995, 135.5034067911454, 0.0
13785, 55.53931099137822, 134.3054856642877, 0.0
13786, 55.71146221935859, 135.5387018580217, 0.0
13787, 53.87476576443584, 136.7638988516687, 0.0
13788, 52.51343795617265, 135.4328166573929, 0.0
13789, 53.28412632336676, 134.1723245968696, 0.0
13790, 53.5794460439013, 135.4681117242692, 0.0
13791, 51.79963002254939, 132.7786714689283, 0.0
13792, 54.17798318311503, 132.9744034700119, 0.0
13793, 52.98880660283221, 132.8765374694701, 0.0
13794, 55.36715976339785, 133.0722694705536, 0.0
13795, 39.44054714833842, 121.3345879143305, 0.0
13796, 38.42000002742795, 120.508245747597, 0.0
13797, 39.27895781660078, 119.7197488213925, 0.0
13798, 39.3597524824696, 120.5271683678615, 0.0
13799, 37.45477549261435, 121.4038863285541, 0.0
13800, 36.54049511734465, 120.4704005070682, 0.0
13801, 37.50571965215825, 119.5747599261111, 0.0
13802, 37.4802475723863, 120.4893231273326, 0.0
13803, 36.6977060225293, 118.5341304498727, 0.0
13804, 38.36467744133107, 118.7862629999066, 0.0
13805, 37.53119173193018, 118.6601967248897, 0.0
13806, 39.19816315073196, 118.9123292749235, 0.0
13807, 35.40610792249923, 121.3633241846857, 0.0
13808, 34.4202457534155, 120.2870470902715, 0.0
13809, 35.55463294826091, 119.3941234126539, 0.0
13810, 35.48037043538008, 120.3787237986698, 0.0
13811, 33.29454443799308, 121.2129014827254, 0.0
13812, 32.29999638948635, 120.1036936734748, 0.0
13813, 33.42569770490878, 119.1778392810209, 0.0
13814, 33.36012107145092, 120.1953703818731, 0.0
13815, 32.42246377697907, 118.0357007569339, 0.0
13816, 34.56008489975419, 118.2849156034033, 0.0
13817, 33.49127433836662, 118.1603081801686, 0.0
13818, 35.62889546114175, 118.409523026638, 0.0
13819, 57.23528916856127, 125.8151848836108, 0.0
13820, 58.2178500896557, 126.726177302523, 0.0
13821, 57.25079902100525, 126.717133846114, 0.0
13822, 58.13653633832124, 124.6988223673711, 0.0
13823, 57.21977931611728, 124.9132359211076, 0.0
13824, 59.11909725941567, 125.6098147862833, 0.0
13825, 59.05329336052519, 124.4844088136346, 0.0
13826, 59.18490115830615, 126.7352207589319, 0.0
13827, 76.21275809675586, 98.94758524340321, 0.0
13828, 75.86800201588905, 100.1818186404306, 0.0
13829, 75.40891532416774, 99.33089410539247, 0.0
13830, 77.7127364991208, 99.23400935113358, 0.0
13831, 77.01660086934397, 98.56427638141398, 0.0
13832, 79.10500775867442, 100.5734752905728, 0.0
13833, 77.36798041825398, 100.4682427481609, 0.0
13834, 78.40887212889763, 99.9037423208532, 0.0
13835, 76.78617539933165, 101.8836677105068, 0.0
13836, 76.32708870761034, 101.0327431754687, 0.0
13837, 49.71535280658405, 126.8153876763684, 0.0
13838, 48.37892735880074, 127.343796533072, 0.0
13839, 47.51047734567386, 125.9141522313991, 0.0
13840, 48.61291507612896, 126.3647699538837, 0.0
13841, 50.63368302865052, 128.4223422037732, 0.0
13842, 50.81779053703914, 127.266005398853, 0.0
13843, 50.26546801187328, 130.7350158136135, 0.0
13844, 49.29725758086721, 128.9507510604768, 0.0
13845, 50.4495755202619, 129.5786790086934, 0.0
13846, 47.91095192414431, 129.3018496914485, 0.0
13847, 46.99262170207784, 127.6948951640437, 0.0
13848, 48.14493964147253, 128.3228231122602, 0.0
13849, 54.99489984351516, 140.4564647993245, 0.0
13850, 55.99753770747721, 139.2408645533989, 0.0
13851, 56.05449983754633, 140.4753378042204, 0.0
13852, 52.87569985545282, 140.4187187895326, 0.0
13853, 53.9151218211346, 139.2130274801753, 0.0
13854, 53.93529984948399, 140.4375917944286, 0.0
13855, 52.87212790047379, 137.9794990975944, 0.0
13856, 54.91775968509666, 137.9974272342496, 0.0
13857, 53.89494379278522, 137.988463165922, 0.0
13858, 55.94057557740809, 138.0063913025773, 0.0
13859, 35.95726910620273, 129.9844184601704, 0.0
13860, 34.81512228597299, 128.9142768939914, 0.0
13861, 35.78075211280269, 127.7854249779429, 0.0
13862, 35.86901060950271, 128.8849217190566, 0.0
13863, 33.87263153286644, 130.0794244052649, 0.0
13864, 32.70734563891357, 128.972987243861, 0.0
13865, 33.64983639202011, 127.8078397325876, 0.0
13866, 33.76123396244328, 128.9436320689262, 0.0
13867, 32.46141142434409, 126.6651069759588, 0.0
13868, 33.42704125117378, 125.5362550599103, 0.0
13869, 34.6154662188498, 126.678987816539, 0.0
13870, 33.53843882159695, 126.6720473962489, 0.0
13871, 35.60423511940265, 125.5864314957154, 0.0
13872, 35.69249361610267, 126.6859282368291, 0.0
13873, 56.23477022301434, 67.89229343338897, 0.0
13874, 55.12485682658104, 68.72282294809267, 0.0
13875, 55.19373792804365, 67.63317996765528, 0.0
13876, 57.15258944657762, 69.24315435595338, 0.0
13877, 57.27580251798504, 68.15140689912268, 0.0
13878, 56.04267605014432, 70.07368387065706, 0.0
13879, 57.0293763751702, 70.3349018127841, 0.0
13880, 55.05597572511844, 69.81246592853005, 0.0
13881, 56.14499214204268, 149.0548612060065, 0.0
13882, 54.88161011395877, 148.065248412683, 0.0
13883, 56.0592563302323, 147.9487636578211, 0.0
13884, 55.29837629650895, 150.1946657059008, 0.0
13885, 56.23072795385306, 150.160958754192, 0.0
13886, 54.03499426842504, 149.2050529125772, 0.0
13887, 54.36602463916483, 150.2283726576095, 0.0
13888, 53.70396389768524, 148.1817331675449, 0.0
13889, 72.29307089444478, 118.8305622444207, 0.0
13890, 71.55590118151383, 117.9688725128288, 0.0
13891, 72.32448901045868, 117.8618252195, 0.0
13892, 71.40132862239355, 119.7859496652235, 0.0
13893, 72.26165277843089, 119.7992992693414, 0.0
13894, 70.66415890946261, 118.9242599336316, 0.0
13895, 70.54100446635624, 119.7726000611056, 0.0
13896, 70.78731335256902, 118.0759198061575, 0.0
13897, 36.5196252619435, 122.4817815801539, 0.0
13898, 35.50517152095094, 123.4748778402006, 0.0
13899, 34.39165418150667, 122.3564204447324, 0.0
13900, 35.45563972172508, 122.4191010124431, 0.0
13901, 36.63509645632588, 124.56827366913, 0.0
13902, 34.4743101840277, 124.493035666786, 0.0
13903, 35.55470332017679, 124.530654667958, 0.0
13904, 32.31352391172952, 124.4177976644421, 0.0
13905, 33.36079284458344, 123.3745782713178, 0.0
13906, 33.39391704787861, 124.4554166656141, 0.0
13907, 32.26368310106984, 122.2310593093108, 0.0
13908, 33.32766864128826, 122.2937398770216, 0.0
13909, 30.25122247208837, 117.8272863874078, 0.0
13910, 29.11616949308518, 118.7973897000428, 0.0
13911, 29.16560181964302, 117.7230792026447, 0.0
13912, 31.2795432198502, 118.9789280434838, 0.0
13913, 31.33684312453372, 117.9314935721709, 0.0
13914, 31.16494341048317, 121.0737969861098, 0.0
13915, 30.14449024084701, 119.9490313561189, 0.0
13916, 31.22224331516668, 120.0263625147969, 0.0
13917, 29.0173048399695, 120.9460106948391, 0.0
13918, 29.06673716652734, 119.871700197441, 0.0
13919, 45.94817380891893, 131.2479670998547, 0.0
13920, 47.18030751037762, 130.8901961832173, 0.0
13921, 47.68179679806963, 132.1207717583487, 0.0
13922, 46.81498530349428, 131.6843694291017, 0.0
13923, 46.47185385649286, 129.4728334535289, 0.0
13924, 48.61940557802907, 130.7192124211369, 0.0
13925, 47.54562971726097, 130.0960229373329, 0.0
13926, 50.76695729956528, 131.9655913887449, 0.0
13927, 49.12089486572108, 131.9497879962683, 0.0
13928, 49.69318143879718, 131.3424019049409, 0.0
13929, 49.41541978722032, 132.9935764168427, 0.0
13930, 48.54860829264498, 132.5571740875957, 0.0
13931, 47.82721999964123, 53.16752499385017, 0.0
13932, 46.9407513325129, 53.90857392133644, 0.0
13933, 47.0276353422606, 53.06177094666104, 0.0
13934, 48.66248946690681, 54.25964221141535, 0.0
13935, 48.62680465702186, 53.27327904103928, 0.0
13936, 47.77602079977848, 55.00069113890163, 0.0
13937, 48.69817427679175, 55.24600538179142, 0.0
13938, 46.85386732276521, 54.75537689601185, 0.0
13939, 77.23953211122934, 104.2478127367665, 0.0
13940, 78.58881786214684, 105.0624221562208, 0.0
13941, 77.46621046717817, 105.4298852498963, 0.0
13942, 78.16000034005097, 102.5065217191001, 0.0
13943, 77.01285375528049, 103.0657402236367, 0.0
13944, 79.50928609096847, 103.3211311385545, 0.0
13945, 79.30714692482144, 101.9473032145636, 0.0
13946, 79.7114252571155, 104.6949590625453, 0.0
13947, 22.99266950167895, 100.1574375320022, 0.0
13948, 23.27160115931805, 99.11836591869663, 0.0
13949, 23.72823677432507, 99.714591876981, 0.0
13950, 21.82361952793387, 99.84360330083102, 0.0
13951, 22.25710222903282, 100.6002831870234, 0.0
13952, 22.10255118557297, 98.80453168752544, 0.0
13953, 21.39013682683492, 99.08692341463865, 0.0
13954, 22.81496554431101, 98.52213996041223, 0.0
13955, 30.81048939141401, 111.6994170223007, 0.0
13956, 32.01400404984791, 110.9703513119052, 0.0
13957, 32.91407974912633, 112.1271030974284, 0.0
13958, 31.86228457027017, 111.9132600598646, 0.0
13959, 28.70689903370168, 111.271730947173, 0.0
13960, 29.95542258090848, 110.485804081305, 0.0
13961, 29.75869421255784, 111.4855739847369, 0.0
13962, 29.14536465917584, 109.2153299848369, 0.0
13963, 31.15893723934238, 109.7567383709095, 0.0
13964, 30.1521509492591, 109.4860341778732, 0.0
13965, 33.17250981950892, 110.2981467569821, 0.0
13966, 32.16572352942565, 110.0274425639458, 0.0
13967, 34.84778016558039, 110.5182310036506, 0.0
13968, 34.01161050286379, 111.289966620247, 0.0
13969, 34.01014499254465, 110.4081888803163, 0.0
13970, 35.94824193995611, 111.4446500063304, 0.0
13971, 35.68541533861611, 110.6282731269848, 0.0
13972, 35.11207227723952, 112.2163856229268, 0.0
13973, 36.21106854129611, 112.261026885676, 0.0
13974, 34.01307601318292, 112.1717443601776, 0.0
13975, 31.71368166301753, 130.1850390077739, 0.0
13976, 30.48674303897884, 129.0502270390728, 0.0
13977, 31.48040701487488, 127.8381752751599, 0.0
13978, 31.5970443389462, 129.0116071414669, 0.0
13979, 29.48041949665599, 130.3012622676976, 0.0
13980, 29.27246398136697, 127.8764316056598, 0.0
13981, 29.37644173901148, 129.0888469366787, 0.0
13982, 29.06450846607795, 125.451600943622, 0.0
13983, 30.266127957263, 126.6643798417469, 0.0
13984, 29.16848622372246, 126.6640162746409, 0.0
13985, 31.24713236673222, 125.4913115425458, 0.0
13986, 31.36376969080354, 126.6647434088529, 0.0
13987, 31.2060378886077, 123.2825542643278, 0.0
13988, 30.10729819802102, 122.1252919411268, 0.0
13989, 31.18549064954543, 122.1781756252188, 0.0
13990, 30.1396463436104, 124.3560681424316, 0.0
13991, 31.22658512766996, 124.3869329034368, 0.0
13992, 29.04090665302373, 123.1988058192306, 0.0
13993, 29.05270755955084, 124.3252033814263, 0.0
13994, 29.02910574649661, 122.0724082570349, 0.0
13995, 41.38007695821025, 159.5868158964965, 0.0
13996, 42.4464541512701, 158.3748612155161, 0.0
13997, 42.5960810194167, 159.5500598422486, 0.0
13998, 40.04772161643572, 158.4287393894326, 0.0
13999, 40.16407289700379, 159.6235719507443, 0.0
14000, 41.11409880949558, 157.2167847084522, 0.0
14001, 39.93137033586765, 157.2339068281208, 0.0
14002, 42.29682728312351, 157.1996625887836, 0.0
14003, 26.73273636610718, 108.3454323913968, 0.0
14004, 25.38254523506808, 109.1701679405777, 0.0
14005, 25.52642221957285, 107.9104835946767, 0.0
14006, 27.7449363093152, 109.8857429575292, 0.0
14007, 27.93905051264151, 108.7803811881168, 0.0
14008, 26.3947451782761, 110.7104785067101, 0.0
14009, 27.55082210598889, 110.9911047269416, 0.0
14010, 25.23866825056331, 110.4298522864786, 0.0
14011, 51.28177978315567, 84.34371905426481, 0.0
14012, 50.60585077106467, 83.38697149652182, 0.0
14013, 51.43950579091153, 83.52839140850897, 0.0
14014, 50.42781666360119, 84.92947480931474, 0.0
14015, 51.12405377539983, 85.15904670002064, 0.0
14016, 49.03534244000393, 84.47033102790294, 0.0
14017, 49.75188765151019, 83.97272725157177, 0.0
14018, 49.73157955180255, 84.69990291860884, 0.0
14019, 48.93854073137098, 83.10413167254754, 0.0
14020, 49.77219575121782, 83.2455515845347, 0.0
14021, 65.19447299706911, 71.2709434230847, 0.0
14022, 66.38651800942225, 72.3714548965987, 0.0
14023, 65.59408134117487, 72.30848417467631, 0.0
14024, 65.83442850201902, 70.17475468402786, 0.0
14025, 64.79486465296335, 70.23340267149311, 0.0
14026, 67.02647351437216, 71.27526615754186, 0.0
14027, 66.87399235107469, 70.11610669656262, 0.0
14028, 67.17895467766964, 72.43442561852109, 0.0
14029, 47.71684905263451, 66.61685333504619, 0.0
14030, 46.59614522114669, 67.61917900419272, 0.0
14031, 46.60974918651475, 66.55062460798707, 0.0
14032, 48.81431192790151, 67.76751066044983, 0.0
14033, 48.82394891875427, 66.6830820621053, 0.0
14034, 47.6936080964137, 68.76983632959636, 0.0
14035, 48.80467493704876, 68.85193925879435, 0.0
14036, 46.58254125577863, 68.68773340039837, 0.0
14037, 51.32894672088013, 134.3453029050434, 0.0
14038, 50.29627399789602, 133.53222282486, 0.0
14039, 51.04795201022271, 133.1554471468941, 0.0
14040, 51.89093614219499, 136.7250144213418, 0.0
14041, 50.70644490690247, 135.6375006689923, 0.0
14042, 51.60994143153756, 135.5351586631926, 0.0
14043, 49.9321245806164, 136.655264760775, 0.0
14044, 49.67377218391836, 134.8244205888089, 0.0
14045, 49.80294838226739, 135.739842674792, 0.0
14046, 49.54459598556934, 133.9089985028258, 0.0
14047, 61.57977699072444, 119.818025202965, 0.0
14048, 60.15953802167424, 120.2290245330334, 0.0
14049, 59.89545368278915, 118.7021140671533, 0.0
14050, 60.7376153367568, 119.2600696350592, 0.0
14051, 60.44599197065173, 121.9612489224394, 0.0
14052, 58.71692944253165, 120.434709939576, 0.0
14053, 59.5814607065917, 121.1979794310077, 0.0
14054, 56.98786691441156, 118.9081709567125, 0.0
14055, 58.45284510364656, 118.9077994736958, 0.0
14056, 57.85239817847161, 119.6714404481442, 0.0
14057, 58.21113037485387, 117.5862029313416, 0.0
14058, 59.05329202882152, 118.1441584992475, 0.0
14059, 40.81559357680925, 87.74561178621639, 0.0
14060, 39.14351618930274, 87.97417823679959, 0.0
14061, 39.9515256718428, 86.97538167027682, 0.0
14062, 40.89203421491423, 89.31485357949913, 0.0
14063, 41.67966148177571, 88.51584190215596, 0.0
14064, 39.21995682740773, 89.54342003008233, 0.0
14065, 40.10440694805277, 90.1138652568423, 0.0
14066, 38.33550670676269, 88.97297480332236, 0.0
14067, 74.84361393731686, 113.1246493235081, 0.0
14068, 73.8862848295988, 114.4215617203673, 0.0
14069, 73.78976610559563, 113.3456975720542, 0.0
14070, 75.95854559571637, 114.0251290986166, 0.0
14071, 75.89746176903807, 112.903601074962, 0.0
14072, 75.0012164879983, 115.3220414954758, 0.0
14073, 76.01962942239467, 115.1466571222712, 0.0
14074, 73.98280355360194, 115.4974258686804, 0.0
14075, 51.84591850644861, 139.0860091033909, 0.0
14076, 50.8647267481698, 137.8315244271383, 0.0
14077, 51.8684273243218, 137.9055117623664, 0.0
14078, 51.80090087070223, 141.4470037854399, 0.0
14079, 50.77111952169803, 140.1142940992981, 0.0
14080, 51.82340968857542, 140.2665064444154, 0.0
14081, 49.64773094622203, 141.064354085316, 0.0
14082, 49.78992776341921, 138.8598094230455, 0.0
14083, 49.71882935482062, 139.9620817541808, 0.0
14084, 49.86102617201781, 137.7575370919103, 0.0
14085, 25.71919192166589, 66.58443817583588, 0.0
14086, 26.25786066373259, 68.51095557139199, 0.0
14087, 24.80317292857705, 69.00457577176886, 0.0
14088, 25.26118242512147, 67.79450697380237, 0.0
14089, 27.75524650291686, 68.20164956851602, 0.0
14090, 26.75383130177055, 70.2531587694472, 0.0
14091, 27.2545389023437, 69.22740416898162, 0.0
14092, 25.29914356661502, 70.74677896982405, 0.0
14093, 26.2531237011974, 71.27891336991277, 0.0
14094, 24.34516343203263, 70.21464456973533, 0.0
14095, 43.70377290953646, 130.3514365214061, 0.0
14096, 45.06184692208716, 129.8382108931884, 0.0
14097, 44.8259733592277, 130.7997018106304, 0.0
14098, 42.76551310084967, 128.7938321261814, 0.0
14099, 42.58157245984523, 129.9031712321818, 0.0
14100, 43.13339438285854, 126.5751539141806, 0.0
14101, 44.12358711340036, 128.2806064979636, 0.0
14102, 42.9494537418541, 127.684493020181, 0.0
14103, 45.53359404780607, 127.9152290583042, 0.0
14104, 45.29772048494662, 128.8767199757463, 0.0
14105, 52.60993679455974, 113.8588751705441, 0.0
14106, 52.61811105305887, 114.9052242409604, 0.0
14107, 51.15533910591243, 114.5725262848998, 0.0
14108, 51.88263795023609, 114.2157007277219, 0.0
14109, 53.96373898183211, 114.0371831403115, 0.0
14110, 53.3372356388834, 113.5020496133662, 0.0
14111, 55.21674566772953, 115.1074501942022, 0.0
14112, 53.97191324033123, 115.0835322107278, 0.0
14113, 54.59024232478082, 114.5723166672569, 0.0
14114, 54.08905725870443, 116.2842712674372, 0.0
14115, 52.73525507143206, 116.1059632976698, 0.0
14116, 53.35358415588165, 115.5947477541988, 0.0
14117, 64.39339320838597, 105.1586714993001, 0.0
14118, 63.43049528415631, 105.294748813825, 0.0
14119, 63.86525893615338, 104.6586632259423, 0.0
14120, 65.44966175285117, 106.1586880460157, 0.0
14121, 64.62832539895062, 106.2687401115938, 0.0
14122, 64.92152748061856, 105.6586797726579, 0.0
14123, 65.00481915984437, 107.3527834749406, 0.0
14124, 64.04192123561472, 107.4888607894655, 0.0
14125, 63.66542747472096, 106.4048174261187, 0.0
14126, 64.33512331728267, 106.8788004505296, 0.0
14127, 62.56096798016219, 106.5669199895905, 0.0
14128, 62.99573163215925, 105.9308344017078, 0.0
14129, 50.28696816204571, 116.2047093641955, 0.0
14130, 50.6106644399935, 117.4055843755192, 0.0
14131, 49.85278269011235, 117.0208009038433, 0.0
14132, 51.50041953911266, 116.0280246526962, 0.0
14133, 50.72115363397907, 115.3886178245476, 0.0
14134, 51.82411581706045, 117.22889966402, 0.0
14135, 52.27968544424625, 116.6674314808449, 0.0
14136, 51.36854618987465, 117.7903678471951, 0.0
14137, 45.93392561832397, 146.2827775821238, 0.0
14138, 45.26351156095087, 145.2118921311757, 0.0
14139, 46.22037249122705, 145.5052568534749, 0.0
14140, 44.78867937314281, 146.9008625016305, 0.0
14141, 45.64747874542088, 147.0602983107727, 0.0
14142, 44.11826531576972, 145.8299770506823, 0.0
14143, 43.92988000086476, 146.7414266924882, 0.0
14144, 44.3066506306747, 144.9185274088765, 0.0
14145, 38.66401181584502, 122.4665073480488, 0.0
14146, 37.72886158517417, 123.5444025996486, 0.0
14147, 37.59181853889426, 122.4741444641013, 0.0
14148, 40.03186303725314, 123.583152549662, 0.0
14149, 39.73620509279578, 122.4588702319962, 0.0
14150, 39.09671280658229, 124.6610478012618, 0.0
14151, 40.32752098171049, 124.7074348673278, 0.0
14152, 37.86590463145409, 124.6146607351959, 0.0
14153, 44.30181443145009, 125.3604668978513, 0.0
14154, 44.80927683879549, 126.5435053253585, 0.0
14155, 43.71760440715431, 125.9678104060159, 0.0
14156, 45.76084208572186, 125.1401330035908, 0.0
14157, 44.88602445574586, 124.7531233896866, 0.0
14158, 46.26830449306726, 126.323171431098, 0.0
14159, 46.63565971569786, 125.5271426174949, 0.0
14160, 45.90094927043666, 127.1192002447011, 0.0
14161, 62.09490123423885, 121.1636759299948, 0.0
14162, 62.76035549146859, 122.5048499214163, 0.0
14163, 61.60317373106016, 122.2330494219279, 0.0
14164, 63.59348048411061, 120.3705796731582, 0.0
14165, 62.58662873741753, 120.0943024380616, 0.0
14166, 64.25893474134035, 121.7117536645798, 0.0
14167, 64.6003322308037, 120.6468569082547, 0.0
14168, 63.91753725187701, 122.7766504209048, 0.0
14169, 62.85683506463854, 107.7931414005187, 0.0
14170, 61.63950302270796, 108.0571972916298, 0.0
14171, 62.10023550143508, 107.3120586406101, 0.0
14172, 63.18494802006929, 109.0595875313889, 0.0
14173, 63.61343462784201, 108.2742241604272, 0.0
14174, 61.9676159781387, 109.3236434225, 0.0
14175, 62.75646141229657, 109.8449509023506, 0.0
14176, 61.17877054398083, 108.8023359426495, 0.0
14177, 67.43530732767921, 106.8169681008567, 0.0
14178, 66.79704893215397, 106.0368979761268, 0.0
14179, 67.47074252180538, 105.9760029411824, 0.0
14180, 66.60152114231683, 107.5562166653342, 0.0
14181, 67.39987213355305, 107.6579332605311, 0.0
14182, 65.96326274679159, 106.7761465406043, 0.0
14183, 65.8031701510806, 107.4545000701374, 0.0
14184, 66.12335534250256, 106.0977930110713, 0.0
14185, 38.71667168614312, 74.26991209041122, 0.0
14186, 37.99488620650266, 75.23059359264869, 0.0
14187, 37.73284691676676, 74.39570200462384, 0.0
14188, 39.77682010302799, 74.89369380469307, 0.0
14189, 39.70049645551947, 74.14412217619861, 0.0
14190, 39.05503462338754, 75.85437530693054, 0.0
14191, 39.85314375053652, 75.64326543318751, 0.0
14192, 38.25692549623857, 76.06548518067355, 0.0
14193, 56.86284934927878, 117.6093553907252, 0.0
14194, 56.7139380212917, 116.3468265627719, 0.0
14195, 57.46253419807279, 116.9665147470567, 0.0
14196, 55.53846208655798, 117.5962211120748, 0.0
14197, 56.26316450048477, 118.2521960343936, 0.0
14198, 55.38955075857091, 116.3336922841215, 0.0
14199, 54.81375967263121, 116.940246189756, 0.0
14200, 55.9653418445106, 115.727138378487, 0.0
14201, 50.02558564134525, 144.9655518773401, 0.0
14202, 51.36677933122949, 144.1031177102896, 0.0
14203, 51.14971856149312, 145.4311746727144, 0.0
14204, 49.15021212953893, 143.3547374164158, 0.0
14205, 48.90145272119737, 144.4999290819657, 0.0
14206, 50.49140581942317, 142.4923032493654, 0.0
14207, 49.39897153788048, 142.209545750866, 0.0
14208, 51.58384010096586, 142.7750607478648, 0.0
14209, 27.34983126671458, 65.32610848016049, 0.0
14210, 27.47595617185794, 66.6745737925895, 0.0
14211, 26.53451159419023, 65.95527332799819, 0.0
14212, 28.95343009099108, 65.23763363341659, 0.0
14213, 28.16515093923893, 64.69694363232279, 0.0
14214, 30.5299883944954, 66.3190136356042, 0.0
14215, 29.07955499613445, 66.5860989458456, 0.0
14216, 29.74170924274325, 65.7783236345104, 0.0
14217, 29.35884532719337, 68.11317472177214, 0.0
14218, 28.41740074952566, 67.39387425718081, 0.0
14219, 66.32556473629904, 133.0480364119998, 0.0
14220, 65.79368276033293, 134.1764710312484, 0.0
14221, 65.43177873421142, 133.2336340792041, 0.0
14222, 67.8185633117101, 133.6567929875143, 0.0
14223, 67.21935073838665, 132.8624387447955, 0.0
14224, 67.28668133574396, 134.7852276067629, 0.0
14225, 68.4177758850335, 134.4511472302331, 0.0
14226, 66.15558678645442, 135.1193079832927, 0.0
14227, 32.56296742374619, 69.12527194531184, 0.0
14228, 32.4392806044719, 67.77712477223884, 0.0
14229, 33.39392670946014, 68.50618034055614, 0.0
14230, 30.94095386775262, 69.20063394063573, 0.0
14231, 31.73200813803225, 69.74436355006753, 0.0
14232, 30.81726704847832, 67.85248676756272, 0.0
14233, 30.149899597473, 68.65690433120395, 0.0
14234, 31.48463449948365, 67.04806920392153, 0.0
14235, 47.6603842772901, 85.08202969893163, 0.0
14236, 48.20444931739121, 84.05089927322518, 0.0
14237, 48.34786335864702, 84.7761803634173, 0.0
14238, 46.63946478079873, 84.57823511922507, 0.0
14239, 46.97290519593318, 85.38787903444597, 0.0
14240, 45.9725839505298, 82.95894728878326, 0.0
14241, 47.18352982089984, 83.54710469351862, 0.0
14242, 46.30602436566426, 83.76859120400417, 0.0
14243, 47.9176212348796, 82.60033709284096, 0.0
14244, 48.06103527613541, 83.32561818303307, 0.0
14245, 57.23865119789047, 87.70417243421917, 0.0
14246, 58.50809402883208, 87.13201485349032, 0.0
14247, 58.16462542223959, 88.1695151672211, 0.0
14248, 56.61261952424879, 86.24756271714253, 0.0
14249, 56.31267697354135, 87.23882970121724, 0.0
14250, 57.21250462566366, 84.26502874899307, 0.0
14251, 57.8820623551904, 85.67540513641367, 0.0
14252, 56.91256207495621, 85.25629573306782, 0.0
14253, 59.19503124201708, 85.05701422602874, 0.0
14254, 58.85156263542458, 86.09451453975954, 0.0
14255, 40.91987152350976, 113.4120195804605, 0.0
14256, 42.26985274573822, 112.9868966627753, 0.0
14257, 42.14327657930086, 113.9866173470785, 0.0
14258, 40.25165149634739, 111.953167885572, 0.0
14259, 39.69646646771865, 112.8374218138424, 0.0
14260, 41.60163271857586, 111.5280449678868, 0.0
14261, 40.80683652497612, 111.0689139573016, 0.0
14262, 42.39642891217559, 111.9871759784721, 0.0
14263, 47.7996756165028, 80.53444674750514, 0.0
14264, 46.51524193429752, 79.52533902627414, 0.0
14265, 47.74070280731439, 79.50150157483722, 0.0
14266, 46.80181570656897, 81.69487446929946, 0.0
14267, 47.8586484256912, 81.56739192017307, 0.0
14268, 45.5173820243637, 80.68576674806846, 0.0
14269, 45.74498298744675, 81.82235701842586, 0.0
14270, 45.28978106128065, 79.54917647771106, 0.0
14271, 58.89801800040262, 81.04152154721795, 0.0
14272, 57.61247645605778, 82.01391512391518, 0.0
14273, 57.81246237125485, 80.88835831137622, 0.0
14274, 59.72072616703929, 82.48212793071603, 0.0
14275, 59.98357362955039, 81.19468478305967, 0.0
14276, 58.43518462269445, 83.45452150741326, 0.0
14277, 59.45787870452818, 83.76957107837237, 0.0
14278, 57.41249054086072, 83.13947193645413, 0.0
14279, 23.40434870672532, 80.61796984099318, 0.0
14280, 25.26555603533327, 80.38319191739491, 0.0
14281, 24.47082432153172, 81.32691426752605, 0.0
14282, 23.26431060956698, 78.97870393275788, 0.0
14283, 22.33787309191891, 79.90902541446032, 0.0
14284, 25.12551793817493, 78.74392600915961, 0.0
14285, 24.19074812721505, 78.04838245105545, 0.0
14286, 26.06028774913481, 79.43946956726377, 0.0
14287, 78.97664926835591, 93.39976558885631, 0.0
14288, 80.00397569059132, 92.22910867591872, 0.0
14289, 80.0223997062661, 93.40094087837173, 0.0
14290, 77.88585943962647, 92.28071016371166, 0.0
14291, 77.93089883044574, 93.3985902993409, 0.0
14292, 78.91318586186188, 91.11005325077407, 0.0
14293, 77.84082004880722, 91.1628300280824, 0.0
14294, 79.98555167491652, 91.05727647346572, 0.0
14295, 20.63446712234897, 92.3347253749539, 0.0
14296, 21.75437547892867, 93.50803885949537, 0.0
14297, 20.60676006515054, 93.49237497339833, 0.0
14298, 20.68988123674585, 90.01942617806506, 0.0
14299, 21.95840991683563, 91.11069647325294, 0.0
14300, 20.66217417954741, 91.1770757765095, 0.0
14301, 23.43097303483236, 89.80462438219837, 0.0
14302, 23.07831827341532, 92.2840099577944, 0.0
14303, 23.25464565412384, 91.04431716999638, 0.0
14304, 22.90199089270681, 93.5237027455924, 0.0
14305, 21.32073116700067, 86.78342854273372, 0.0
14306, 20.4459027894832, 87.83929591416708, 0.0
14307, 20.32391356585187, 86.7492307822181, 0.0
14308, 22.6886901903771, 87.81329232956567, 0.0
14309, 22.31754876814947, 86.81762630324933, 0.0
14310, 21.81386181285963, 88.86915970099903, 0.0
14311, 23.05983161260473, 88.808958355882, 0.0
14312, 20.56789201311453, 88.92936104611607, 0.0
14313, 75.21110034715119, 77.33365373182832, 0.0
14314, 74.1218285923131, 75.93157580273287, 0.0
14315, 75.25049361292652, 75.92256581804853, 0.0
14316, 73.98377311237786, 78.87342125240073, 0.0
14317, 75.17170708137584, 78.74474164560813, 0.0
14318, 72.89450135753977, 77.47134332330528, 0.0
14319, 72.79583914337985, 79.00210085919335, 0.0
14320, 72.99316357169965, 75.94058578741722, 0.0
14321, 33.33793938816686, 51.40832798308475, 0.0
14322, 32.15151473516731, 52.57299561340494, 0.0
14323, 31.0725463086582, 51.20401396829563, 0.0
14324, 32.20524284841254, 51.30617097569019, 0.0
14325, 33.21776383765391, 53.91235713246292, 0.0
14326, 30.97780940619027, 53.76728336977648, 0.0
14327, 32.09778662192208, 53.8398202511197, 0.0
14328, 29.89884097968116, 52.39830172466717, 0.0
14329, 29.85783219045845, 53.69474648843327, 0.0
14330, 29.93984976890387, 51.10185696090107, 0.0
14331, 59.07519746426357, 31.79439735135453, 0.0
14332, 57.73662332036123, 30.5639196080786, 0.0
14333, 59.01821356271159, 30.58829559710978, 0.0
14334, 59.18916526736752, 34.20660085984403, 0.0
14335, 57.85345949735428, 32.97276296242448, 0.0
14336, 59.13218136581555, 33.00049910559927, 0.0
14337, 56.63458990433408, 34.14776841935083, 0.0
14338, 56.51488535345194, 31.74228521914856, 0.0
14339, 56.574737628893, 32.94502681924969, 0.0
14340, 56.45503307801089, 30.53954361904742, 0.0
14341, 36.34472771644899, 131.8754241247719, 0.0
14342, 35.1850173272511, 131.1174101883195, 0.0
14343, 36.15099841132586, 130.9299212924712, 0.0
14344, 35.72515134268416, 133.2883876995233, 0.0
14345, 36.53845702157213, 132.8209269570727, 0.0
14346, 34.09853998490821, 134.2233091844245, 0.0
14347, 34.56544095348627, 132.5303737630709, 0.0
14348, 34.91184566379619, 133.7558484419739, 0.0
14349, 33.25305515910161, 131.4923879800162, 0.0
14350, 34.21903624317635, 131.3048990841679, 0.0
14351, 29.81411298104734, 132.9008561953802, 0.0
14352, 31.35348647713141, 134.2082051676225, 0.0
14353, 29.98095972324301, 134.2006531592214, 0.0
14354, 30.84919587893498, 131.5648354810313, 0.0
14355, 29.64726623885166, 131.6010592315389, 0.0
14356, 32.38856937501905, 132.8721844532736, 0.0
14357, 32.05112551901829, 131.5286117305238, 0.0
14358, 32.72601323101982, 134.2157571760235, 0.0
14359, 35.48344012795441, 51.90825334439791, 0.0
14360, 34.32560043378173, 52.88054378158719, 0.0
14361, 34.41068975806063, 51.65829066374133, 0.0
14362, 36.42109807552443, 53.32094622921392, 0.0
14363, 36.55619049784818, 52.15821602505449, 0.0
14364, 35.26325838135175, 54.2932366664032, 0.0
14365, 36.28600565320068, 54.48367643337333, 0.0
14366, 34.24051110950283, 54.10279689943305, 0.0
14367, 58.02060550519082, 35.38105714192315, 0.0
14368, 56.87225822440612, 36.55283518337015, 0.0
14369, 56.75342406437011, 35.35030180136049, 0.0
14370, 59.38640862465556, 36.6170241051276, 0.0
14371, 59.28778694601154, 35.41181248248581, 0.0
14372, 59.58365198194359, 39.02744735041117, 0.0
14373, 58.23806134387086, 37.7888021465746, 0.0
14374, 59.48503030329957, 37.82223572776938, 0.0
14375, 57.10992654447817, 38.95790194738947, 0.0
14376, 56.99109238444214, 37.75536856537981, 0.0
14377, 58.76878366474013, 42.58356483474919, 0.0
14378, 59.84227386936622, 41.42839879289721, 0.0
14379, 59.97158481307754, 42.62887451414024, 0.0
14380, 57.41396385909454, 41.34480408603525, 0.0
14381, 57.56598251640273, 42.53825515535814, 0.0
14382, 58.48745406372063, 40.18963804418328, 0.0
14383, 57.26194520178636, 40.15135301671236, 0.0
14384, 59.71296292565491, 40.22792307165419, 0.0
*ELEMENT, TYPE=S8, ELSET=EALL
1, 1217, 1359, 1363, 1362, 3937, 3938, 3939, 3940
2, 1359, 1276, 1360, 1363, 3942, 3943, 3944, 3938
3, 1363, 1360, 1297, 1361, 3944, 3946, 3947, 3948
4, 1362, 1363, 1361, 1269, 3939, 3948, 3950, 3951
5, 1211, 1364, 1368, 1367, 3953, 3954, 3955, 3956
6, 1364, 1267, 1365, 1368, 3958, 3959, 3960, 3954
7, 1368, 1365, 1303, 1366, 3960, 3962, 3963, 3964
8, 1367, 1368, 1366, 1256, 3955, 3964, 3966, 3967
9, 1240, 1369, 1373, 1372, 3969, 3970, 3971, 3972
10, 1369, 1190, 1370, 1373, 3974, 3975, 3976, 3970
11, 1373, 1370, 1256, 1371, 3976, 3978, 3979, 3980
12, 1372, 1373, 1371, 1304, 3971, 3980, 3982, 3983
13, 1167, 1374, 1377, 1376, 3985, 3986, 3987, 3988
14, 1374, 1217, 1362, 1377, 3990, 3940, 3991, 3986
15, 1377, 1362, 1269, 1375, 3991, 3951, 3993, 3994
16, 1376, 1377, 1375, 1162, 3987, 3994, 3996, 3997
17, 1149, 1378, 1382, 1381, 3999, 4000, 4001, 4002
18, 1378, 1195, 1379, 1382, 4004, 4005, 4006, 4000
19, 1382, 1379, 1041, 1380, 4006, 4008, 4009, 4010
20, 1381, 1382, 1380, 1048, 4001, 4010, 4012, 4013
21, 869, 1383, 1387, 1386, 4015, 4016, 4017, 4018
22, 1383, 793, 1384, 1387, 4020, 4021, 4022, 4016
23, 1387, 1384, 872, 1385, 4022, 4024, 4025, 4026
24, 1386, 1387, 1385, 888, 4017, 4026, 4028, 4029
25, 868, 1388, 1392, 1391, 4031, 4032, 4033, 4034
26, 1388, 794, 1389, 1392, 4036, 4037, 4038, 4032
27, 1392, 1389, 799, 1390, 4038, 4040, 4041, 4042
28, 1391, 1392, 1390, 913, 4033, 4042, 4044, 4045
29, 1128, 1393, 1397, 1396, 4047, 4048, 4049, 4050
30, 1393, 1142, 1394, 1397, 4052, 4053, 4054, 4048
31, 1397, 1394, 1046, 1395, 4054, 4056, 4057, 4058
32, 1396, 1397, 1395, 1047, 4049, 4058, 4060, 4061
33, 954, 1398, 1402, 1401, 4063, 4064, 4065, 4066
34, 1398, 1049, 1399, 1402, 4068, 4069, 4070, 4064
35, 1402, 1399, 904, 1400, 4070, 4072, 4073, 4074
36, 1401, 1402, 1400, 882, 4065, 4074, 4076, 4077
37, 876, 1403, 1407, 1406, 4079, 4080, 4081, 4082
38, 1403, 1054, 1404, 1407, 4084, 4085, 4086, 4080
39, 1407, 1404, 1104, 1405, 4086, 4088, 4089, 4090
40, 1406, 1407, 1405, 1027, 4081, 4090, 4092, 4093
41, 1104, 1408, 1412, 1411, 4095, 4096, 4097, 4098
42, 1408, 1194, 1409, 1412, 4100, 4101, 4102, 4096
43, 1412, 1409, 1238, 1410, 4102, 4104, 4105, 4106
44, 1411, 1412, 1410, 1227, 4097, 4106, 4108, 4109
45, 1102, 1413, 1417, 1416, 4111, 4112, 4113, 4114
46, 1413, 1070, 1414, 1417, 4116, 4117, 4118, 4112
47, 1417, 1414, 1069, 1415, 4118, 4120, 4121, 4122
48, 1416, 1417, 1415, 1121, 4113, 4122, 4124, 4125
49, 929, 1418, 1422, 1421, 4127, 4128, 4129, 4130
50, 1418, 975, 1419, 1422, 4132, 4133, 4134, 4128
51, 1422, 1419, 960, 1420, 4134, 4136, 4137, 4138
52, 1421, 1422, 1420, 928, 4129, 4138, 4140, 4141
53, 1323, 1423, 1426, 1425, 4143, 4144, 4145, 4146
54, 1423, 1297, 1360, 1426, 4148, 3946, 4149, 4144
55, 1426, 1360, 1276, 1424, 4149, 3943, 4151, 4152
56, 1425, 1426, 1424, 1253, 4145, 4152, 4154, 4155
57, 1087, 1427, 1431, 1430, 4157, 4158, 4159, 4160
58, 1427, 885, 1428, 1431, 4162, 4163, 4164, 4158
59, 1431, 1428, 980, 1429, 4164, 4166, 4167, 4168
60, 1430, 1431, 1429, 974, 4159, 4168, 4170, 4171
61, 1296, 1432, 1436, 1435, 4173, 4174, 4175, 4176
62, 1432, 1246, 1433, 1436, 4178, 4179, 4180, 4174
63, 1436, 1433, 1309, 1434, 4180, 4182, 4183, 4184
64, 1435, 1436, 1434, 1340, 4175, 4184, 4186, 4187
65, 1317, 1437, 1441, 1440, 4189, 4190, 4191, 4192
66, 1437, 1303, 1438, 1441, 4194, 4195, 4196, 4190
67, 1441, 1438, 1302, 1439, 4196, 4198, 4199, 4200
68, 1440, 1441, 1439, 1310, 4191, 4200, 4202, 4203
69, 1334, 1442, 1446, 1445, 4205, 4206, 4207, 4208
70, 1442, 1316, 1443, 1446, 4210, 4211, 4212, 4206
71, 1446, 1443, 1281, 1444, 4212, 4214, 4215, 4216
72, 1445, 1446, 1444, 1332, 4207, 4216, 4218, 4219
73, 1234, 1447, 1451, 1450, 4221, 4222, 4223, 4224
74, 1447, 1195, 1448, 1451, 4226, 4227, 4228, 4222
75, 1451, 1448, 1117, 1449, 4228, 4230, 4231, 4232
76, 1450, 1451, 1449, 1241, 4223, 4232, 4234, 4235
77, 1332, 1452, 1455, 1445, 4237, 4238, 4239, 4219
78, 1452, 1349, 1453, 1455, 4241, 4242, 4243, 4238
79, 1455, 1453, 1343, 1454, 4243, 4245, 4246, 4247
80, 1445, 1455, 1454, 1334, 4239, 4247, 4249, 4208
81, 1315, 1456, 1459, 1458, 4251, 4252, 4253, 4254
82, 1456, 1308, 1457, 1459, 4256, 4257, 4258, 4252
83, 1459, 1457, 1334, 1454, 4258, 4260, 4249, 4261
84, 1458, 1459, 1454, 1343, 4253, 4261, 4246, 4263
85, 1090, 1460, 1464, 1463, 4265, 4266, 4267, 4268
86, 1460, 964, 1461, 1464, 4270, 4271, 4272, 4266
87, 1464, 1461, 1092, 1462, 4272, 4274, 4275, 4276
88, 1463, 1464, 1462, 1058, 4267, 4276, 4278, 4279
89, 1192, 1465, 1469, 1468, 4281, 4282, 4283, 4284
90, 1465, 1095, 1466, 1469, 4286, 4287, 4288, 4282
91, 1469, 1466, 1025, 1467, 4288, 4290, 4291, 4292
92, 1468, 1469, 1467, 1098, 4283, 4292, 4294, 4295
93, 560, 1470, 1474, 1473, 4297, 4298, 4299, 4300
94, 1470, 647, 1471, 1474, 4302, 4303, 4304, 4298
95, 1474, 1471, 739, 1472, 4304, 4306, 4307, 4308
96, 1473, 1474, 1472, 713, 4299, 4308, 4310, 4311
97, 1264, 1475, 1479, 1478, 4313, 4314, 4315, 4316
98, 1475, 1249, 1476, 1479, 4318, 4319, 4320, 4314
99, 1479, 1476, 1177, 1477, 4320, 4322, 4323, 4324
100, 1478, 1479, 1477, 1220, 4315, 4324, 4326, 4327
101, 864, 1480, 1484, 1483, 4329, 4330, 4331, 4332
102, 1480, 880, 1481, 1484, 4334, 4335, 4336, 4330
103, 1484, 1481, 1040, 1482, 4336, 4338, 4339, 4340
104, 1483, 1484, 1482, 981, 4331, 4340, 4342, 4343
105, 986, 1485, 1489, 1488, 4345, 4346, 4347, 4348
106, 1485, 1094, 1486, 1489, 4350, 4351, 4352, 4346
107, 1489, 1486, 1099, 1487, 4352, 4354, 4355, 4356
108, 1488, 1489, 1487, 1122, 4347, 4356, 4358, 4359
109, 713, 1472, 1493, 1492, 4310, 4361, 4362, 4363
110, 1472, 739, 1490, 1493, 4307, 4365, 4366, 4361
111, 1493, 1490, 810, 1491, 4366, 4368, 4369, 4370
112, 1492, 1493, 1491, 722, 4362, 4370, 4372, 4373
113, 870, 1494, 1498, 1497, 4375, 4376, 4377, 4378
114, 1494, 948, 1495, 1498, 4380, 4381, 4382, 4376
115, 1498, 1495, 964, 1496, 4382, 4384, 4385, 4386
116, 1497, 1498, 1496, 891, 4377, 4386, 4388, 4389
117, 1295, 1499, 1503, 1502, 4391, 4392, 4393, 4394
118, 1499, 1251, 1500, 1503, 4396, 4397, 4398, 4392
119, 1503, 1500, 1261, 1501, 4398, 4400, 4401, 4402
120, 1502, 1503, 1501, 1319, 4393, 4402, 4404, 4405
121, 740, 1504, 1507, 1506, 4407, 4408, 4409, 4410
122, 1504, 870, 1497, 1507, 4412, 4378, 4413, 4408
123, 1507, 1497, 891, 1505, 4413, 4389, 4415, 4416
124, 1506, 1507, 1505, 809, 4409, 4416, 4418, 4419
125, 1030, 1508, 1512, 1511, 4421, 4422, 4423, 4424
126, 1508, 1055, 1509, 1512, 4426, 4427, 4428, 4422
127, 1512, 1509, 982, 1510, 4428, 4430, 4431, 4432
128, 1511, 1512, 1510, 875, 4423, 4432, 4434, 4435
129, 1116, 1513, 1517, 1516, 4437, 4438, 4439, 4440
130, 1513, 1200, 1514, 1517, 4442, 4443, 4444, 4438
131, 1517, 1514, 1145, 1515, 4444, 4446, 4447, 4448
132, 1516, 1517, 1515, 1050, 4439, 4448, 4450, 4451
133, 1254, 1518, 1522, 1521, 4453, 4454, 4455, 4456
134, 1518, 1244, 1519, 1522, 4458, 4459, 4460, 4454
135, 1522, 1519, 1306, 1520, 4460, 4462, 4463, 4464
136, 1521, 1522, 1520, 1288, 4455, 4464, 4466, 4467
137, 1285, 1523, 1527, 1526, 4469, 4470, 4471, 4472
138, 1523, 1328, 1524, 1527, 4474, 4475, 4476, 4470
139, 1527, 1524, 1289, 1525, 4476, 4478, 4479, 4480
140, 1526, 1527, 1525, 1293, 4471, 4480, 4482, 4483
141, 823, 1528, 1532, 1531, 4485, 4486, 4487, 4488
142, 1528, 812, 1529, 1532, 4490, 4491, 4492, 4486
143, 1532, 1529, 746, 1530, 4492, 4494, 4495, 4496
144, 1531, 1532, 1530, 752, 4487, 4496, 4498, 4499
145, 895, 1533, 1536, 1535, 4501, 4502, 4503, 4504
146, 1533, 1128, 1396, 1536, 4506, 4050, 4507, 4502
147, 1536, 1396, 1047, 1534, 4507, 4061, 4509, 4510
148, 1535, 1536, 1534, 1056, 4503, 4510, 4512, 4513
149, 563, 1537, 1541, 1540, 4515, 4516, 4517, 4518
150, 1537, 740, 1538, 1541, 4520, 4521, 4522, 4516
151, 1541, 1538, 720, 1539, 4522, 4524, 4525, 4526
152, 1540, 1541, 1539, 664, 4517, 4526, 4528, 4529
153, 1235, 1542, 1545, 1544, 4531, 4532, 4533, 4534
154, 1542, 1253, 1424, 1545, 4536, 4154, 4537, 4532
155, 1545, 1424, 1276, 1543, 4537, 4151, 4539, 4540
156, 1544, 1545, 1543, 1157, 4533, 4540, 4542, 4543
157, 1122, 1546, 1550, 1549, 4545, 4546, 4547, 4548
158, 1546, 1239, 1547, 1550, 4550, 4551, 4552, 4546
159, 1550, 1547, 1158, 1548, 4552, 4554, 4555, 4556
160, 1549, 1550, 1548, 1023, 4547, 4556, 4558, 4559
161, 978, 1551, 1555, 1554, 4561, 4562, 4563, 4564
162, 1551, 836, 1552, 1555, 4566, 4567, 4568, 4562
163, 1555, 1552, 837, 1553, 4568, 4570, 4571, 4572
164, 1554, 1555, 1553, 905, 4563, 4572, 4574, 4575
165, 1251, 1556, 1559, 1500, 4577, 4578, 4579, 4397
166, 1556, 1222, 1557, 1559, 4581, 4582, 4583, 4578
167, 1559, 1557, 1172, 1558, 4583, 4585, 4586, 4587
168, 1500, 1559, 1558, 1261, 4579, 4587, 4589, 4400
169, 1199, 1560, 1563, 1562, 4591, 4592, 4593, 4594
170, 1560, 1235, 1544, 1563, 4596, 4534, 4597, 4592
171, 1563, 1544, 1157, 1561, 4597, 4543, 4599, 4600
172, 1562, 1563, 1561, 1032, 4593, 4600, 4602, 4603
173, 1335, 1564, 1568, 1567, 4605, 4606, 4607, 4608
174, 1564, 1320, 1565, 1568, 4610, 4611, 4612, 4606
175, 1568, 1565, 1341, 1566, 4612, 4614, 4615, 4616
176, 1567, 1568, 1566, 1348, 4607, 4616, 4618, 4619
177, 906, 1569, 1573, 1572, 4621, 4622, 4623, 4624
178, 1569, 983, 1570, 1573, 4626, 4627, 4628, 4622
179, 1573, 1570, 816, 1571, 4628, 4630, 4631, 4632
180, 1572, 1573, 1571, 825, 4623, 4632, 4634, 4635
181, 839, 1574, 1578, 1577, 4637, 4638, 4639, 4640
182, 1574, 741, 1575, 1578, 4642, 4643, 4644, 4638
183, 1578, 1575, 727, 1576, 4644, 4646, 4647, 4648
184, 1577, 1578, 1576, 808, 4639, 4648, 4650, 4651
185, 1354, 1579, 1583, 1582, 4653, 4654, 4655, 4656
186, 1579, 1349, 1580, 1583, 4658, 4659, 4660, 4654
187, 1583, 1580, 1358, 1581, 4660, 4662, 4663, 4664
188, 1582, 1583, 1581, 1348, 4655, 4664, 4666, 4667
189, 1120, 1584, 1588, 1587, 4669, 4670, 4671, 4672
190, 1584, 1053, 1585, 1588, 4674, 4675, 4676, 4670
191, 1588, 1585, 1016, 1586, 4676, 4678, 4679, 4680
192, 1587, 1588, 1586, 1062, 4671, 4680, 4682, 4683
193, 1101, 1589, 1593, 1592, 4685, 4686, 4687, 4688
194, 1589, 1196, 1590, 1593, 4690, 4691, 4692, 4686
195, 1593, 1590, 1169, 1591, 4692, 4694, 4695, 4696
196, 1592, 1593, 1591, 1275, 4687, 4696, 4698, 4699
197, 1249, 1475, 1597, 1596, 4318, 4701, 4702, 4703
198, 1475, 1264, 1594, 1597, 4313, 4705, 4706, 4701
199, 1597, 1594, 1259, 1595, 4706, 4708, 4709, 4710
200, 1596, 1597, 1595, 1286, 4702, 4710, 4712, 4713
201, 1326, 1598, 1601, 1600, 4715, 4716, 4717, 4718
202, 1598, 1294, 1599, 1601, 4720, 4721, 4722, 4716
203, 1601, 1599, 1254, 1521, 4722, 4724, 4456, 4725
204, 1600, 1601, 1521, 1288, 4717, 4725, 4467, 4727
205, 1206, 1602, 1606, 1605, 4729, 4730, 4731, 4732
206, 1602, 1258, 1603, 1606, 4734, 4735, 4736, 4730
207, 1606, 1603, 1228, 1604, 4736, 4738, 4739, 4740
208, 1605, 1606, 1604, 1175, 4731, 4740, 4742, 4743
209, 824, 1607, 1611, 1610, 4745, 4746, 4747, 4748
210, 1607, 742, 1608, 1611, 4750, 4751, 4752, 4746
211, 1611, 1608, 728, 1609, 4752, 4754, 4755, 4756
212, 1610, 1611, 1609, 803, 4747, 4756, 4758, 4759
213, 1161, 1612, 1616, 1615, 4761, 4762, 4763, 4764
214, 1612, 1121, 1613, 1616, 4766, 4767, 4768, 4762
215, 1616, 1613, 1028, 1614, 4768, 4770, 4771, 4772
216, 1615, 1616, 1614, 1219, 4763, 4772, 4774, 4775
217, 974, 1429, 1619, 1618, 4170, 4777, 4778, 4779
218, 1429, 980, 1617, 1619, 4167, 4781, 4782, 4777
219, 1619, 1617, 1092, 1461, 4782, 4784, 4274, 4785
220, 1618, 1619, 1461, 964, 4778, 4785, 4271, 4787
221, 903, 1620, 1624, 1623, 4789, 4790, 4791, 4792
222, 1620, 648, 1621, 1624, 4794, 4795, 4796, 4790
223, 1624, 1621, 750, 1622, 4796, 4798, 4799, 4800
224, 1623, 1624, 1622, 811, 4791, 4800, 4802, 4803
225, 1219, 1614, 1628, 1627, 4774, 4805, 4806, 4807
226, 1614, 1028, 1625, 1628, 4771, 4809, 4810, 4805
227, 1628, 1625, 1127, 1626, 4810, 4812, 4813, 4814
228, 1627, 1628, 1626, 1155, 4806, 4814, 4816, 4817
229, 1211, 1367, 1631, 1630, 3956, 4819, 4820, 4821
230, 1367, 1256, 1370, 1631, 3967, 3978, 4823, 4819
231, 1631, 1370, 1190, 1629, 4823, 3975, 4825, 4826
232, 1630, 1631, 1629, 1227, 4820, 4826, 4828, 4829
233, 1150, 1632, 1636, 1635, 4831, 4832, 4833, 4834
234, 1632, 1146, 1633, 1636, 4836, 4837, 4838, 4832
235, 1636, 1633, 1087, 1634, 4838, 4840, 4841, 4842
236, 1635, 1636, 1634, 1086, 4833, 4842, 4844, 4845
237, 1300, 1637, 1641, 1640, 4847, 4848, 4849, 4850
238, 1637, 1321, 1638, 1641, 4852, 4853, 4854, 4848
239, 1641, 1638, 1314, 1639, 4854, 4856, 4857, 4858
240, 1640, 1641, 1639, 1301, 4849, 4858, 4860, 4861
241, 945, 1642, 1646, 1645, 4863, 4864, 4865, 4866
242, 1642, 913, 1643, 1646, 4868, 4869, 4870, 4864
243, 1646, 1643, 1083, 1644, 4870, 4872, 4873, 4874
244, 1645, 1646, 1644, 972, 4865, 4874, 4876, 4877
245, 1344, 1647, 1651, 1650, 4879, 4880, 4881, 4882
246, 1647, 1336, 1648, 1651, 4884, 4885, 4886, 4880
247, 1651, 1648, 1313, 1649, 4886, 4888, 4889, 4890
248, 1650, 1651, 1649, 1329, 4881, 4890, 4892, 4893
249, 827, 1652, 1656, 1655, 4895, 4896, 4897, 4898
250, 1652, 743, 1653, 1656, 4900, 4901, 4902, 4896
251, 1656, 1653, 745, 1654, 4902, 4904, 4905, 4906
252, 1655, 1656, 1654, 815, 4897, 4906, 4908, 4909
253, 1053, 1657, 1660, 1585, 4911, 4912, 4913, 4675
254, 1657, 970, 1658, 1660, 4915, 4916, 4917, 4912
255, 1660, 1658, 1018, 1659, 4917, 4919, 4920, 4921
256, 1585, 1660, 1659, 1016, 4913, 4921, 4923, 4678
257, 1297, 1661, 1664, 1361, 4925, 4926, 4927, 3947
258, 1661, 1248, 1662, 1664, 4929, 4930, 4931, 4926
259, 1664, 1662, 1226, 1663, 4931, 4933, 4934, 4935
260, 1361, 1664, 1663, 1269, 4927, 4935, 4937, 3950
261, 1295, 1502, 1667, 1666, 4394, 4939, 4940, 4941
262, 1502, 1319, 1665, 1667, 4405, 4943, 4944, 4939
263, 1667, 1665, 1329, 1649, 4944, 4946, 4892, 4947
264, 1666, 1667, 1649, 1313, 4940, 4947, 4889, 4949
265, 1352, 1668, 1671, 1670, 4951, 4952, 4953, 4954
266, 1668, 1329, 1665, 1671, 4956, 4946, 4957, 4952
267, 1671, 1665, 1319, 1669, 4957, 4943, 4959, 4960
268, 1670, 1671, 1669, 1280, 4953, 4960, 4962, 4963
269, 1123, 1672, 1676, 1675, 4965, 4966, 4967, 4968
270, 1672, 1060, 1673, 1676, 4970, 4971, 4972, 4966
271, 1676, 1673, 965, 1674, 4972, 4974, 4975, 4976
272, 1675, 1676, 1674, 1110, 4967, 4976, 4978, 4979
273, 1179, 1677, 1681, 1680, 4981, 4982, 4983, 4984
274, 1677, 1165, 1678, 1681, 4986, 4987, 4988, 4982
275, 1681, 1678, 1210, 1679, 4988, 4990, 4991, 4992
276, 1680, 1681, 1679, 1266, 4983, 4992, 4994, 4995
277, 1349, 1452, 1684, 1580, 4241, 4997, 4998, 4659
278, 1452, 1332, 1682, 1684, 4237, 5000, 5001, 4997
279, 1684, 1682, 1355, 1683, 5001, 5003, 5004, 5005
280, 1580, 1684, 1683, 1358, 4998, 5005, 5007, 4662
281, 1258, 1685, 1689, 1688, 5009, 5010, 5011, 5012
282, 1685, 1293, 1686, 1689, 5014, 5015, 5016, 5010
283, 1689, 1686, 1265, 1687, 5016, 5018, 5019, 5020
284, 1688, 1689, 1687, 1214, 5011, 5020, 5022, 5023
285, 986, 1488, 1692, 1691, 4348, 5025, 5026, 5027
286, 1488, 1122, 1549, 1692, 4359, 4548, 5029, 5025
287, 1692, 1549, 1023, 1690, 5029, 4559, 5031, 5032
288, 1691, 1692, 1690, 873, 5026, 5032, 5034, 5035
289, 1328, 1523, 1696, 1695, 4474, 5037, 5038, 5039
290, 1523, 1285, 1693, 1696, 4469, 5041, 5042, 5037
291, 1696, 1693, 1315, 1694, 5042, 5044, 5045, 5046
292, 1695, 1696, 1694, 1331, 5038, 5046, 5048, 5049
293, 1111, 1697, 1701, 1700, 5051, 5052, 5053, 5054
294, 1697, 1061, 1698, 1701, 5056, 5057, 5058, 5052
295, 1701, 1698, 1009, 1699, 5058, 5060, 5061, 5062
296, 1700, 1701, 1699, 1126, 5053, 5062, 5064, 5065
297, 1320, 1564, 1705, 1704, 4610, 5067, 5068, 5069
298, 1564, 1335, 1702, 1705, 4605, 5071, 5072, 5067
299, 1705, 1702, 1321, 1703, 5072, 5074, 5075, 5076
300, 1704, 1705, 1703, 1299, 5068, 5076, 5078, 5079
301, 798, 1706, 1710, 1709, 5081, 5082, 5083, 5084
302, 1706, 749, 1707, 1710, 5086, 5087, 5088, 5082
303, 1710, 1707, 730, 1708, 5088, 5090, 5091, 5092
304, 1709, 1710, 1708, 848, 5083, 5092, 5094, 5095
305, 1253, 1711, 1713, 1425, 5097, 5098, 5099, 4155
306, 1711, 1296, 1435, 1713, 5101, 4176, 5102, 5098
307, 1713, 1435, 1340, 1712, 5102, 4187, 5104, 5105
308, 1425, 1713, 1712, 1323, 5099, 5105, 5107, 4146
309, 1050, 1714, 1718, 1717, 5109, 5110, 5111, 5112
310, 1714, 975, 1715, 1718, 5114, 5115, 5116, 5110
311, 1718, 1715, 879, 1716, 5116, 5118, 5119, 5120
312, 1717, 1718, 1716, 1036, 5111, 5120, 5122, 5123
313, 1264, 1719, 1722, 1594, 5125, 5126, 5127, 4705
314, 1719, 1225, 1720, 1722, 5129, 5130, 5131, 5126
315, 1722, 1720, 1188, 1721, 5131, 5133, 5134, 5135
316, 1594, 1722, 1721, 1259, 5127, 5135, 5137, 4708
317, 1294, 1598, 1726, 1725, 4720, 5139, 5140, 5141
318, 1598, 1326, 1723, 1726, 4715, 5143, 5144, 5139
319, 1726, 1723, 1324, 1724, 5144, 5146, 5147, 5148
320, 1725, 1726, 1724, 1250, 5140, 5148, 5150, 5151
321, 1321, 1702, 1729, 1638, 5074, 5153, 5154, 4853
322, 1702, 1335, 1727, 1729, 5071, 5156, 5157, 5153
323, 1729, 1727, 1355, 1728, 5157, 5159, 5160, 5161
324, 1638, 1729, 1728, 1314, 5154, 5161, 5163, 4856
325, 1213, 1730, 1734, 1733, 5165, 5166, 5167, 5168
326, 1730, 1182, 1731, 1734, 5170, 5171, 5172, 5166
327, 1734, 1731, 1111, 1732, 5172, 5174, 5175, 5176
328, 1733, 1734, 1732, 1223, 5167, 5176, 5178, 5179
329, 1353, 1735, 1739, 1738, 5181, 5182, 5183, 5184
330, 1735, 1356, 1736, 1739, 5186, 5187, 5188, 5182
331, 1739, 1736, 1347, 1737, 5188, 5190, 5191, 5192
332, 1738, 1739, 1737, 1333, 5183, 5192, 5194, 5195
333, 825, 1571, 1743, 1742, 4634, 5197, 5198, 5199
334, 1571, 816, 1740, 1743, 4631, 5201, 5202, 5197
335, 1743, 1740, 582, 1741, 5202, 5204, 5205, 5206
336, 1742, 1743, 1741, 599, 5198, 5206, 5208, 5209
337, 1203, 1744, 1748, 1747, 5211, 5212, 5213, 5214
338, 1744, 1154, 1745, 1748, 5216, 5217, 5218, 5212
339, 1748, 1745, 1224, 1746, 5218, 5220, 5221, 5222
340, 1747, 1748, 1746, 1247, 5213, 5222, 5224, 5225
341, 8, 1749, 1752, 530, 5227, 5228, 5229, 537
342, 1749, 661, 1750, 1752, 5231, 5232, 5233, 5228
343, 1752, 1750, 550, 1751, 5233, 5235, 5236, 5237
344, 530, 1752, 1751, 531, 5229, 5237, 5239, 538
345, 1241, 1449, 1756, 1755, 4234, 5241, 5242, 5243
346, 1449, 1117, 1753, 1756, 4231, 5245, 5246, 5241
347, 1756, 1753, 1193, 1754, 5246, 5248, 5249, 5250
348, 1755, 1756, 1754, 1170, 5242, 5250, 5252, 5253
349, 1050, 1717, 1759, 1516, 5112, 5255, 5256, 4451
350, 1717, 1036, 1757, 1759, 5123, 5258, 5259, 5255
351, 1759, 1757, 1118, 1758, 5259, 5261, 5262, 5263
352, 1516, 1759, 1758, 1116, 5256, 5263, 5265, 4440
353, 1317, 1440, 1763, 1762, 4192, 5267, 5268, 5269
354, 1440, 1310, 1760, 1763, 4203, 5271, 5272, 5267
355, 1763, 1760, 1354, 1761, 5272, 5274, 5275, 5276
356, 1762, 1763, 1761, 1330, 5268, 5276, 5278, 5279
357, 1221, 1764, 1768, 1767, 5281, 5282, 5283, 5284
358, 1764, 1156, 1765, 1768, 5286, 5287, 5288, 5282
359, 1768, 1765, 1108, 1766, 5288, 5290, 5291, 5292
360, 1767, 1768, 1766, 1174, 5283, 5292, 5294, 5295
361, 1177, 1769, 1772, 1477, 5297, 5298, 5299, 4323
362, 1769, 1105, 1770, 1772, 5301, 5302, 5303, 5298
363, 1772, 1770, 1187, 1771, 5303, 5305, 5306, 5307
364, 1477, 1772, 1771, 1220, 5299, 5307, 5309, 4326
365, 1158, 1773, 1776, 1775, 5311, 5312, 5313, 5314
366, 1773, 1246, 1432, 1776, 5316, 4178, 5317, 5312
367, 1776, 1432, 1296, 1774, 5317, 4173, 5319, 5320
368, 1775, 1776, 1774, 1218, 5313, 5320, 5322, 5323
369, 990, 1777, 1781, 1780, 5325, 5326, 5327, 5328
370, 1777, 914, 1778, 1781, 5330, 5331, 5332, 5326
371, 1781, 1778, 796, 1779, 5332, 5334, 5335, 5336
372, 1780, 1781, 1779, 949, 5327, 5336, 5338, 5339
373, 520, 519, 1785, 1784, 527, 5341, 5342, 5343
374, 519, 518, 1782, 1785, 526, 5345, 5346, 5341
375, 1785, 1782, 710, 1783, 5346, 5348, 5349, 5350
376, 1784, 1785, 1783, 662, 5342, 5350, 5352, 5353
377, 1017, 1786, 1790, 1789, 5355, 5356, 5357, 5358
378, 1786, 884, 1787, 1790, 5360, 5361, 5362, 5356
379, 1790, 1787, 984, 1788, 5362, 5364, 5365, 5366
380, 1789, 1790, 1788, 1048, 5357, 5366, 5368, 5369
381, 1049, 1398, 1793, 1792, 4068, 5371, 5372, 5373
382, 1398, 954, 1791, 1793, 4063, 5375, 5376, 5371
383, 1793, 1791, 1170, 1754, 5376, 5378, 5252, 5379
384, 1792, 1793, 1754, 1193, 5372, 5379, 5249, 5381
385, 746, 1794, 1797, 1530, 5383, 5384, 5385, 4495
386, 1794, 590, 1795, 1797, 5387, 5388, 5389, 5384
387, 1797, 1795, 666, 1796, 5389, 5391, 5392, 5393
388, 1530, 1797, 1796, 752, 5385, 5393, 5395, 4498
389, 1256, 1366, 1799, 1371, 3966, 5397, 5398, 3979
390, 1366, 1303, 1437, 1799, 3963, 4194, 5400, 5397
391, 1799, 1437, 1317, 1798, 5400, 4189, 5402, 5403
392, 1371, 1799, 1798, 1304, 5398, 5403, 5405, 3982
393, 1112, 1800, 1804, 1803, 5407, 5408, 5409, 5410
394, 1800, 1065, 1801, 1804, 5412, 5413, 5414, 5408
395, 1804, 1801, 990, 1802, 5414, 5416, 5417, 5418
396, 1803, 1804, 1802, 1129, 5409, 5418, 5420, 5421
397, 1354, 1805, 1808, 1579, 5423, 5424, 5425, 4653
398, 1805, 1345, 1806, 1808, 5427, 5428, 5429, 5424
399, 1808, 1806, 1331, 1807, 5429, 5431, 5432, 5433
400, 1579, 1808, 1807, 1349, 5425, 5433, 5435, 4658
401, 875, 1510, 1812, 1811, 4434, 5437, 5438, 5439
402, 1510, 982, 1809, 1812, 4431, 5441, 5442, 5437
403, 1812, 1809, 923, 1810, 5442, 5444, 5445, 5446
404, 1811, 1812, 1810, 828, 5438, 5446, 5448, 5449
405, 1164, 1813, 1817, 1816, 5451, 5452, 5453, 5454
406, 1813, 1134, 1814, 1817, 5456, 5457, 5458, 5452
407, 1817, 1814, 1051, 1815, 5458, 5460, 5461, 5462
408, 1816, 1817, 1815, 1180, 5453, 5462, 5464, 5465
409, 1041, 1818, 1820, 1380, 5467, 5468, 5469, 4009
410, 1818, 881, 1819, 1820, 5471, 5472, 5473, 5468
411, 1820, 1819, 1017, 1789, 5473, 5475, 5358, 5476
412, 1380, 1820, 1789, 1048, 5469, 5476, 5369, 4012
413, 977, 1821, 1825, 1824, 5479, 5480, 5481, 5482
414, 1821, 919, 1822, 1825, 5484, 5485, 5486, 5480
415, 1825, 1822, 842, 1823, 5486, 5488, 5489, 5490
416, 1824, 1825, 1823, 979, 5481, 5490, 5492, 5493
417, 967, 1826, 1830, 1829, 5495, 5496, 5497, 5498
418, 1826, 1063, 1827, 1830, 5500, 5501, 5502, 5496
419, 1830, 1827, 917, 1828, 5502, 5504, 5505, 5506
420, 1829, 1830, 1828, 817, 5497, 5506, 5508, 5509
421, 885, 1427, 1833, 1832, 4162, 5511, 5512, 5513
422, 1427, 1087, 1633, 1833, 4157, 4840, 5515, 5511
423, 1833, 1633, 1146, 1831, 5515, 4837, 5517, 5518
424, 1832, 1833, 1831, 992, 5512, 5518, 5520, 5521
425, 748, 1834, 1838, 1837, 5523, 5524, 5525, 5526
426, 1834, 593, 1835, 1838, 5528, 5529, 5530, 5524
427, 1838, 1835, 669, 1836, 5530, 5532, 5533, 5534
428, 1837, 1838, 1836, 756, 5525, 5534, 5536, 5537
429, 1283, 1839, 1843, 1842, 5539, 5540, 5541, 5542
430, 1839, 1302, 1840, 1843, 5544, 5545, 5546, 5540
431, 1843, 1840, 1205, 1841, 5546, 5548, 5549, 5550
432, 1842, 1843, 1841, 1266, 5541, 5550, 5552, 5553
433, 812, 1844, 1847, 1846, 5555, 5556, 5557, 5558
434, 1844, 971, 1845, 1847, 5560, 5561, 5562, 5556
435, 1847, 1845, 1090, 1463, 5562, 5564, 4268, 5565
436, 1846, 1847, 1463, 1058, 5557, 5565, 4279, 5567
437, 804, 1848, 1852, 1851, 5569, 5570, 5571, 5572
438, 1848, 753, 1849, 1852, 5574, 5575, 5576, 5570
439, 1852, 1849, 762, 1850, 5576, 5578, 5579, 5580
440, 1851, 1852, 1850, 834, 5571, 5580, 5582, 5583
441, 1152, 1853, 1856, 1855, 5585, 5586, 5587, 5588
442, 1853, 1120, 1854, 1856, 5590, 5591, 5592, 5586
443, 1856, 1854, 1145, 1514, 5592, 5594, 4446, 5595
444, 1855, 1856, 1514, 1200, 5587, 5595, 4443, 5597
445, 903, 1623, 1859, 1858, 4792, 5599, 5600, 5601
446, 1623, 811, 1857, 1859, 4803, 5603, 5604, 5599
447, 1859, 1857, 1062, 1586, 5604, 5606, 4682, 5607
448, 1858, 1859, 1586, 1016, 5600, 5607, 4679, 5609
449, 745, 1653, 1863, 1862, 4904, 5611, 5612, 5613
450, 1653, 743, 1860, 1863, 4901, 5615, 5616, 5611
451, 1863, 1860, 665, 1861, 5616, 5618, 5619, 5620
452, 1862, 1863, 1861, 571, 5612, 5620, 5622, 5623
453, 1194, 1864, 1867, 1866, 5625, 5626, 5627, 5628
454, 1864, 1198, 1865, 1867, 5630, 5631, 5632, 5626
455, 1867, 1865, 1116, 1758, 5632, 5634, 5265, 5635
456, 1866, 1867, 1758, 1118, 5627, 5635, 5262, 5637
457, 1309, 1868, 1870, 1434, 5639, 5640, 5641, 4183
458, 1868, 1353, 1738, 1870, 5643, 5184, 5644, 5640
459, 1870, 1738, 1333, 1869, 5644, 5195, 5646, 5647
460, 1434, 1870, 1869, 1340, 5641, 5647, 5649, 4186
461, 1258, 1688, 1873, 1603, 5012, 5651, 5652, 4735
462, 1688, 1214, 1871, 1873, 5023, 5654, 5655, 5651
463, 1873, 1871, 1176, 1872, 5655, 5657, 5658, 5659
464, 1603, 1873, 1872, 1228, 5652, 5659, 5661, 4738
465, 1303, 1365, 1875, 1438, 3962, 5663, 5664, 4195
466, 1365, 1267, 1874, 1875, 3959, 5666, 5667, 5663
467, 1875, 1874, 1205, 1840, 5667, 5669, 5548, 5670
468, 1438, 1875, 1840, 1302, 5664, 5670, 5545, 4198
469, 1113, 1876, 1880, 1879, 5673, 5674, 5675, 5676
470, 1876, 1181, 1877, 1880, 5678, 5679, 5680, 5674
471, 1880, 1877, 1072, 1878, 5680, 5682, 5683, 5684
472, 1879, 1880, 1878, 1043, 5675, 5684, 5686, 5687
473, 1270, 1881, 1885, 1884, 5689, 5690, 5691, 5692
474, 1881, 1301, 1882, 1885, 5694, 5695, 5696, 5690
475, 1885, 1882, 1245, 1883, 5696, 5698, 5699, 5700
476, 1884, 1885, 1883, 1221, 5691, 5700, 5702, 5703
477, 915, 1886, 1890, 1889, 5705, 5706, 5707, 5708
478, 1886, 832, 1887, 1890, 5710, 5711, 5712, 5706
479, 1890, 1887, 734, 1888, 5712, 5714, 5715, 5716
480, 1889, 1890, 1888, 851, 5707, 5716, 5718, 5719
481, 904, 1891, 1894, 1400, 5721, 5722, 5723, 4073
482, 1891, 756, 1892, 1894, 5725, 5726, 5727, 5722
483, 1894, 1892, 840, 1893, 5727, 5729, 5730, 5731
484, 1400, 1894, 1893, 882, 5723, 5731, 5733, 4076
485, 812, 1846, 1897, 1896, 5558, 5735, 5736, 5737
486, 1846, 1058, 1462, 1897, 5567, 4278, 5739, 5735
487, 1897, 1462, 1092, 1895, 5739, 4275, 5741, 5742
488, 1896, 1897, 1895, 920, 5736, 5742, 5744, 5745
489, 1037, 1898, 1902, 1901, 5747, 5748, 5749, 5750
490, 1898, 1131, 1899, 1902, 5752, 5753, 5754, 5748
491, 1902, 1899, 993, 1900, 5754, 5756, 5757, 5758
492, 1901, 1902, 1900, 897, 5749, 5758, 5760, 5761
493, 969, 1903, 1907, 1906, 5763, 5764, 5765, 5766
494, 1903, 1064, 1904, 1907, 5768, 5769, 5770, 5764
495, 1907, 1904, 918, 1905, 5770, 5772, 5773, 5774
496, 1906, 1907, 1905, 896, 5765, 5774, 5776, 5777
497, 963, 1908, 1912, 1911, 5779, 5780, 5781, 5782
498, 1908, 921, 1909, 1912, 5784, 5785, 5786, 5780
499, 1912, 1909, 839, 1910, 5786, 5788, 5789, 5790
500, 1911, 1912, 1910, 976, 5781, 5790, 5792, 5793
501, 1104, 1404, 1914, 1408, 4088, 5795, 5796, 4095
502, 1404, 1054, 1913, 1914, 4085, 5798, 5799, 5795
503, 1914, 1913, 1198, 1864, 5799, 5801, 5630, 5802
504, 1408, 1914, 1864, 1194, 5796, 5802, 5625, 4100
505, 1121, 1612, 1917, 1416, 4766, 5805, 5806, 4125
506, 1612, 1161, 1915, 1917, 4761, 5808, 5809, 5805
507, 1917, 1915, 1216, 1916, 5809, 5811, 5812, 5813
508, 1416, 1917, 1916, 1102, 5806, 5813, 5815, 4114
509, 1066, 1918, 1922, 1921, 5817, 5818, 5819, 5820
510, 1918, 922, 1919, 1922, 5822, 5823, 5824, 5818
511, 1922, 1919, 807, 1920, 5824, 5826, 5827, 5828
512, 1921, 1922, 1920, 957, 5819, 5828, 5830, 5831
513, 1250, 1923, 1927, 1926, 5833, 5834, 5835, 5836
514, 1923, 1292, 1924, 1927, 5838, 5839, 5840, 5834
515, 1927, 1924, 1239, 1925, 5840, 5842, 5843, 5844
516, 1926, 1927, 1925, 1168, 5835, 5844, 5846, 5847
517, 1344, 1650, 1930, 1929, 4882, 5849, 5850, 5851
518, 1650, 1329, 1668, 1930, 4893, 4956, 5853, 5849
519, 1930, 1668, 1352, 1928, 5853, 4951, 5855, 5856
520, 1929, 1930, 1928, 1351, 5850, 5856, 5858, 5859
521, 1085, 1931, 1935, 1934, 5861, 5862, 5863, 5864
522, 1931, 1151, 1932, 1935, 5866, 5867, 5868, 5862
523, 1935, 1932, 971, 1933, 5868, 5870, 5871, 5872
524, 1934, 1935, 1933, 892, 5863, 5872, 5874, 5875
525, 1071, 1936, 1940, 1939, 5877, 5878, 5879, 5880
526, 1936, 924, 1937, 1940, 5882, 5883, 5884, 5878
527, 1940, 1937, 846, 1938, 5884, 5886, 5887, 5888
528, 1939, 1940, 1938, 992, 5879, 5888, 5890, 5891
529, 743, 1941, 1944, 1860, 5893, 5894, 5895, 5615
530, 1941, 744, 1942, 1944, 5897, 5898, 5899, 5894
531, 1944, 1942, 588, 1943, 5899, 5901, 5902, 5903
532, 1860, 1944, 1943, 665, 5895, 5903, 5905, 5618
533, 1046, 1945, 1948, 1395, 5907, 5908, 5909, 4057
534, 1945, 976, 1946, 1948, 5911, 5912, 5913, 5908
535, 1948, 1946, 883, 1947, 5913, 5915, 5916, 5917
536, 1395, 1948, 1947, 1047, 5909, 5917, 5919, 4060
537, 726, 1949, 1953, 1952, 5921, 5922, 5923, 5924
538, 1949, 750, 1950, 1953, 5926, 5927, 5928, 5922
539, 1953, 1950, 592, 1951, 5928, 5930, 5931, 5932
540, 1952, 1953, 1951, 670, 5923, 5932, 5934, 5935
541, 1263, 1954, 1958, 1957, 5937, 5938, 5939, 5940
542, 1954, 1282, 1955, 1958, 5942, 5943, 5944, 5938
543, 1958, 1955, 1318, 1956, 5944, 5946, 5947, 5948
544, 1957, 1958, 1956, 1260, 5939, 5948, 5950, 5951
545, 872, 1959, 1962, 1961, 5953, 5954, 5955, 5956
546, 1959, 722, 1491, 1962, 5958, 4372, 5959, 5954
547, 1962, 1491, 810, 1960, 5959, 4369, 5961, 5962
548, 1961, 1962, 1960, 893, 5955, 5962, 5964, 5965
549, 822, 1963, 1967, 1966, 5967, 5968, 5969, 5970
550, 1963, 720, 1964, 1967, 5972, 5973, 5974, 5968
551, 1967, 1964, 944, 1965, 5974, 5976, 5977, 5978
552, 1966, 1967, 1965, 884, 5969, 5978, 5980, 5981
553, 1026, 1968, 1972, 1971, 5983, 5984, 5985, 5986
554, 1968, 1057, 1969, 1972, 5988, 5989, 5990, 5984
555, 1972, 1969, 874, 1970, 5990, 5992, 5993, 5994
556, 1971, 1972, 1970, 968, 5985, 5994, 5996, 5997
557, 727, 1575, 1976, 1975, 4646, 5999, 6000, 6001
558, 1575, 741, 1973, 1976, 4643, 6003, 6004, 5999
559, 1976, 1973, 595, 1974, 6004, 6006, 6007, 6008
560, 1975, 1976, 1974, 668, 6000, 6008, 6010, 6011
561, 837, 1552, 1980, 1979, 4570, 6013, 6014, 6015
562, 1552, 836, 1977, 1980, 4567, 6017, 6018, 6013
563, 1980, 1977, 561, 1978, 6018, 6020, 6021, 6022
564, 1979, 1980, 1978, 596, 6014, 6022, 6024, 6025
565, 1124, 1981, 1985, 1984, 6027, 6028, 6029, 6030
566, 1981, 1033, 1982, 1985, 6032, 6033, 6034, 6028
567, 1985, 1982, 994, 1983, 6034, 6036, 6037, 6038
568, 1984, 1985, 1983, 1082, 6029, 6038, 6040, 6041
569, 753, 1986, 1990, 1989, 6043, 6044, 6045, 6046
570, 1986, 754, 1987, 1990, 6048, 6049, 6050, 6044
571, 1990, 1987, 594, 1988, 6050, 6052, 6053, 6054
572, 1989, 1990, 1988, 667, 6045, 6054, 6056, 6057
573, 1280, 1991, 1994, 1670, 6059, 6060, 6061, 4963
574, 1991, 1311, 1992, 1994, 6063, 6064, 6065, 6060
575, 1994, 1992, 1342, 1993, 6065, 6067, 6068, 6069
576, 1670, 1994, 1993, 1352, 6061, 6069, 6071, 4954
577, 992, 1938, 1997, 1832, 5890, 6073, 6074, 5521
578, 1938, 846, 1995, 1997, 5887, 6076, 6077, 6073
579, 1997, 1995, 804, 1996, 6077, 6079, 6080, 6081
580, 1832, 1997, 1996, 885, 6074, 6081, 6083, 5513
581, 1344, 1929, 2000, 1999, 5851, 6085, 6086, 6087
582, 1929, 1351, 1998, 2000, 5859, 6089, 6090, 6085
583, 2000, 1998, 1347, 1736, 6090, 6092, 5190, 6093
584, 1999, 2000, 1736, 1356, 6086, 6093, 5187, 6095
585, 731, 2001, 2004, 2003, 6097, 6098, 6099, 6100
586, 2001, 828, 1810, 2004, 6102, 5448, 6103, 6098
587, 2004, 1810, 923, 2002, 6103, 5445, 6105, 6106
588, 2003, 2004, 2002, 751, 6099, 6106, 6108, 6109
589, 752, 2005, 2008, 1531, 6111, 6112, 6113, 4499
590, 2005, 761, 2006, 2008, 6115, 6116, 6117, 6112
591, 2008, 2006, 835, 2007, 6117, 6119, 6120, 6121
592, 1531, 2008, 2007, 823, 6113, 6121, 6123, 4488
593, 975, 1714, 2010, 1419, 5114, 6125, 6126, 4133
594, 1714, 1050, 1515, 2010, 5109, 4450, 6128, 6125
595, 2010, 1515, 1145, 2009, 6128, 4447, 6130, 6131
596, 1419, 2010, 2009, 960, 6126, 6131, 6133, 4136
597, 666, 2011, 2013, 1796, 6135, 6136, 6137, 5392
598, 2011, 568, 2012, 2013, 6139, 6140, 6141, 6136
599, 2013, 2012, 761, 2005, 6141, 6143, 6115, 6144
600, 1796, 2013, 2005, 752, 6137, 6144, 6111, 5395
601, 729, 2014, 2018, 2017, 6147, 6148, 6149, 6150
602, 2014, 826, 2015, 2018, 6152, 6153, 6154, 6148
603, 2018, 2015, 556, 2016, 6154, 6156, 6157, 6158
604, 2017, 2018, 2016, 674, 6149, 6158, 6160, 6161
605, 1293, 1685, 2020, 1526, 5014, 6163, 6164, 4483
606, 1685, 1258, 1602, 2020, 5009, 4734, 6166, 6163
607, 2020, 1602, 1206, 2019, 6166, 4729, 6168, 6169
608, 1526, 2020, 2019, 1285, 6164, 6169, 6171, 4472
609, 994, 1982, 2024, 2023, 6036, 6173, 6174, 6175
610, 1982, 1033, 2021, 2024, 6033, 6177, 6178, 6173
611, 2024, 2021, 1135, 2022, 6178, 6180, 6181, 6182
612, 2023, 2024, 2022, 997, 6174, 6182, 6184, 6185
613, 883, 2025, 2028, 2027, 6187, 6188, 6189, 6190
614, 2025, 808, 2026, 2028, 6192, 6193, 6194, 6188
615, 2028, 2026, 919, 1821, 6194, 6196, 5484, 6197
616, 2027, 2028, 1821, 977, 6189, 6197, 5479, 6199
617, 667, 2029, 2031, 1989, 6201, 6202, 6203, 6057
618, 2029, 569, 2030, 2031, 6205, 6206, 6207, 6202
619, 2031, 2030, 762, 1849, 6207, 6209, 5578, 6210
620, 1989, 2031, 1849, 753, 6203, 6210, 5575, 6046
621, 905, 2032, 2034, 1554, 6213, 6214, 6215, 4575
622, 2032, 1051, 1814, 2034, 6217, 5460, 6218, 6214
623, 2034, 1814, 1134, 2033, 6218, 5457, 6220, 6221
624, 1554, 2034, 2033, 978, 6215, 6221, 6223, 4564
625, 728, 1608, 2038, 2037, 4754, 6225, 6226, 6227
626, 1608, 742, 2035, 2038, 4751, 6229, 6230, 6225
627, 2038, 2035, 597, 2036, 6230, 6232, 6233, 6234
628, 2037, 2038, 2036, 672, 6226, 6234, 6236, 6237
629, 673, 2039, 2043, 2042, 6239, 6240, 6241, 6242
630, 2039, 643, 2040, 2043, 6244, 6245, 6246, 6240
631, 2043, 2040, 583, 2041, 6246, 6248, 6249, 6250
632, 2042, 2043, 2041, 598, 6241, 6250, 6252, 6253
633, 1056, 1534, 2045, 2044, 4512, 6255, 6256, 6257
634, 1534, 1047, 1947, 2045, 4509, 5919, 6259, 6255
635, 2045, 1947, 883, 2027, 6259, 5916, 6190, 6261
636, 2044, 2045, 2027, 977, 6256, 6261, 6199, 6263
637, 968, 2046, 2050, 2049, 6265, 6266, 6267, 6268
638, 2046, 931, 2047, 2050, 6270, 6271, 6272, 6266
639, 2050, 2047, 824, 2048, 6272, 6274, 6275, 6276
640, 2049, 2050, 2048, 987, 6267, 6276, 6278, 6279
641, 914, 2051, 2054, 1778, 6281, 6282, 6283, 5331
642, 2051, 765, 2052, 2054, 6285, 6286, 6287, 6282
643, 2054, 2052, 768, 2053, 6287, 6289, 6290, 6291
644, 1778, 2054, 2053, 796, 6283, 6291, 6293, 5334
645, 976, 1945, 2057, 1911, 5911, 6295, 6296, 5793
646, 1945, 1046, 2055, 2057, 5907, 6298, 6299, 6295
647, 2057, 2055, 1136, 2056, 6299, 6301, 6302, 6303
648, 1911, 2057, 2056, 963, 6296, 6303, 6305, 5782
649, 1171, 2058, 2061, 2060, 6307, 6308, 6309, 6310
650, 2058, 1163, 2059, 2061, 6312, 6313, 6314, 6308
651, 2061, 2059, 1267, 1364, 6314, 6316, 3958, 6317
652, 2060, 2061, 1364, 1211, 6309, 6317, 3953, 6319
653, 812, 1528, 2063, 1844, 4490, 6321, 6322, 5555
654, 1528, 823, 2062, 2063, 4485, 6324, 6325, 6321
655, 2063, 2062, 892, 1933, 6325, 6327, 5874, 6328
656, 1844, 2063, 1933, 971, 6322, 6328, 5871, 5560
657, 910, 2064, 2068, 2067, 6331, 6332, 6333, 6334
658, 2064, 680, 2065, 2068, 6336, 6337, 6338, 6332
659, 2068, 2065, 769, 2066, 6338, 6340, 6341, 6342
660, 2067, 2068, 2066, 795, 6333, 6342, 6344, 6345
661, 828, 2001, 2072, 2071, 6102, 6347, 6348, 6349
662, 2001, 731, 2069, 2072, 6097, 6351, 6352, 6347
663, 2072, 2069, 638, 2070, 6352, 6354, 6355, 6356
664, 2071, 2072, 2070, 719, 6348, 6356, 6358, 6359
665, 955, 2073, 2076, 2075, 6361, 6362, 6363, 6364
666, 2073, 1101, 2074, 2076, 6366, 6367, 6368, 6362
667, 2076, 2074, 1180, 1815, 6368, 6370, 5464, 6371
668, 2075, 2076, 1815, 1051, 6363, 6371, 5461, 6373
669, 1081, 2077, 2081, 2080, 6375, 6376, 6377, 6378
670, 2077, 1000, 2078, 2081, 6380, 6381, 6382, 6376
671, 2081, 2078, 915, 2079, 6382, 6384, 6385, 6386
672, 2080, 2081, 2079, 1068, 6377, 6386, 6388, 6389
673, 830, 2082, 2086, 2085, 6391, 6392, 6393, 6394
674, 2082, 758, 2083, 2086, 6396, 6397, 6398, 6392
675, 2086, 2083, 841, 2084, 6398, 6400, 6401, 6402
676, 2085, 2086, 2084, 911, 6393, 6402, 6404, 6405
677, 1069, 1414, 2090, 2089, 4120, 6407, 6408, 6409
678, 1414, 1070, 2087, 2090, 4117, 6411, 6412, 6407
679, 2090, 2087, 930, 2088, 6412, 6414, 6415, 6416
680, 2089, 2090, 2088, 983, 6408, 6416, 6418, 6419
681, 1078, 2091, 2095, 2094, 6421, 6422, 6423, 6424
682, 2091, 1130, 2092, 2095, 6426, 6427, 6428, 6422
683, 2095, 2092, 1138, 2093, 6428, 6430, 6431, 6432
684, 2094, 2095, 2093, 1045, 6423, 6432, 6434, 6435
685, 1101, 2073, 2098, 1589, 6366, 6437, 6438, 4685
686, 2073, 955, 2096, 2098, 6361, 6440, 6441, 6437
687, 2098, 2096, 1071, 2097, 6441, 6443, 6444, 6445
688, 1589, 2098, 2097, 1196, 6438, 6445, 6447, 4690
689, 1140, 2099, 2103, 2102, 6449, 6450, 6451, 6452
690, 2099, 1162, 2100, 2103, 6454, 6455, 6456, 6450
691, 2103, 2100, 1096, 2101, 6456, 6458, 6459, 6460
692, 2102, 2103, 2101, 1026, 6451, 6460, 6462, 6463
693, 1061, 2104, 2107, 1698, 6465, 6466, 6467, 5057
694, 2104, 933, 2105, 2107, 6469, 6470, 6471, 6466
695, 2107, 2105, 798, 2106, 6471, 6473, 6474, 6475
696, 1698, 2107, 2106, 1009, 6467, 6475, 6477, 5060
697, 634, 2108, 2112, 2111, 6479, 6480, 6481, 6482
698, 2108, 545, 2109, 2112, 6484, 6485, 6486, 6480
699, 2112, 2109, 682, 2110, 6486, 6488, 6489, 6490
700, 2111, 2112, 2110, 758, 6481, 6490, 6492, 6493
701, 919, 2113, 2116, 1822, 6495, 6496, 6497, 5485
702, 2113, 654, 2114, 2116, 6499, 6500, 6501, 6496
703, 2116, 2114, 744, 2115, 6501, 6503, 6504, 6505
704, 1822, 2116, 2115, 842, 6497, 6505, 6507, 5488
705, 1322, 2117, 2119, 2118, 6509, 6510, 6511, 6512
706, 2117, 1328, 1695, 2119, 6514, 5039, 6515, 6510
707, 2119, 1695, 1331, 1806, 6515, 5049, 5431, 6517
708, 2118, 2119, 1806, 1345, 6511, 6517, 5428, 6519
709, 929, 1421, 2123, 2122, 4130, 6521, 6522, 6523
710, 1421, 928, 2120, 2123, 4141, 6525, 6526, 6521
711, 2123, 2120, 726, 2121, 6526, 6528, 6529, 6530
712, 2122, 2123, 2121, 826, 6522, 6530, 6532, 6533
713, 1115, 2124, 2128, 2127, 6535, 6536, 6537, 6538
714, 2124, 1184, 2125, 2128, 6540, 6541, 6542, 6536
715, 2128, 2125, 1073, 2126, 6542, 6544, 6545, 6546
716, 2127, 2128, 2126, 1074, 6537, 6546, 6548, 6549
717, 1244, 1518, 2131, 2130, 4458, 6551, 6552, 6553
718, 1518, 1254, 2129, 2131, 4453, 6555, 6556, 6551
719, 2131, 2129, 1161, 1615, 6556, 6558, 4764, 6559
720, 2130, 2131, 1615, 1219, 6552, 6559, 4775, 6561
721, 731, 2003, 2135, 2134, 6100, 6563, 6564, 6565
722, 2003, 751, 2132, 2135, 6109, 6567, 6568, 6563
723, 2135, 2132, 607, 2133, 6568, 6570, 6571, 6572
724, 2134, 2135, 2133, 679, 6564, 6572, 6574, 6575
725, 921, 2136, 2138, 1909, 6577, 6578, 6579, 5785
726, 2136, 651, 2137, 2138, 6581, 6582, 6583, 6578
727, 2138, 2137, 741, 1574, 6583, 6585, 4642, 6586
728, 1909, 2138, 1574, 839, 6579, 6586, 4637, 5788
729, 1124, 2139, 2141, 1981, 6589, 6590, 6591, 6027
730, 2139, 1175, 1604, 2141, 6593, 4742, 6594, 6590
731, 2141, 1604, 1228, 2140, 6594, 4739, 6596, 6597
732, 1981, 2141, 2140, 1033, 6591, 6597, 6599, 6032
733, 635, 2142, 2146, 2145, 6601, 6602, 6603, 6604
734, 2142, 546, 2143, 2146, 6606, 6607, 6608, 6602
735, 2146, 2143, 683, 2144, 6608, 6610, 6611, 6612
736, 2145, 2146, 2144, 760, 6603, 6612, 6614, 6615
737, 1079, 2147, 2151, 2150, 6617, 6618, 6619, 6620
738, 2147, 1002, 2148, 2151, 6622, 6623, 6624, 6618
739, 2151, 2148, 887, 2149, 6624, 6626, 6627, 6628
740, 2150, 2151, 2149, 1067, 6619, 6628, 6630, 6631
741, 1286, 2152, 2155, 1596, 6633, 6634, 6635, 4713
742, 2152, 1308, 2153, 2155, 6637, 6638, 6639, 6634
743, 2155, 2153, 1298, 2154, 6639, 6641, 6642, 6643
744, 1596, 2155, 2154, 1249, 6635, 6643, 6645, 4703
745, 909, 2156, 2160, 2159, 6647, 6648, 6649, 6650
746, 2156, 843, 2157, 2160, 6652, 6653, 6654, 6648
747, 2160, 2157, 723, 2158, 6654, 6656, 6657, 6658
748, 2159, 2160, 2158, 890, 6649, 6658, 6660, 6661
749, 1130, 2161, 2164, 2092, 6663, 6664, 6665, 6427
750, 2161, 1183, 2162, 2164, 6667, 6668, 6669, 6664
751, 2164, 2162, 1132, 2163, 6669, 6671, 6672, 6673
752, 2092, 2164, 2163, 1138, 6665, 6673, 6675, 6430
753, 1048, 1788, 2167, 1381, 5368, 6677, 6678, 4013
754, 1788, 984, 2165, 2167, 5365, 6680, 6681, 6677
755, 2167, 2165, 1147, 2166, 6681, 6683, 6684, 6685
756, 1381, 2167, 2166, 1149, 6678, 6685, 6687, 4002
757, 1062, 1857, 2170, 2169, 5606, 6689, 6690, 6691
758, 1857, 811, 2168, 2170, 5603, 6693, 6694, 6689
759, 2170, 2168, 928, 1420, 6694, 6696, 4140, 6697
760, 2169, 2170, 1420, 960, 6690, 6697, 4137, 6699
761, 1223, 2171, 2174, 1733, 6701, 6702, 6703, 5179
762, 2171, 1260, 2172, 2174, 6705, 6706, 6707, 6702
763, 2174, 2172, 1268, 2173, 6707, 6709, 6710, 6711
764, 1733, 2174, 2173, 1213, 6703, 6711, 6713, 5168
765, 607, 2132, 2177, 2176, 6570, 6715, 6716, 6717
766, 2132, 751, 2175, 2177, 6567, 6719, 6720, 6715
767, 2177, 2175, 673, 2042, 6720, 6722, 6242, 6723
768, 2176, 2177, 2042, 598, 6716, 6723, 6253, 6725
769, 924, 2178, 2181, 1937, 6727, 6728, 6729, 5883
770, 2178, 644, 2179, 2181, 6731, 6732, 6733, 6728
771, 2181, 2179, 754, 2180, 6733, 6735, 6736, 6737
772, 1937, 2181, 2180, 846, 6729, 6737, 6739, 5886
773, 921, 1908, 2185, 2184, 5784, 6741, 6742, 6743
774, 1908, 963, 2182, 2185, 5779, 6745, 6746, 6741
775, 2185, 2182, 878, 2183, 6746, 6748, 6749, 6750
776, 2184, 2185, 2183, 803, 6742, 6750, 6752, 6753
777, 733, 2186, 2190, 2189, 6755, 6756, 6757, 6758
778, 2186, 755, 2187, 2190, 6760, 6761, 6762, 6756
779, 2190, 2187, 605, 2188, 6762, 6764, 6765, 6766
780, 2189, 2190, 2188, 676, 6757, 6766, 6768, 6769
781, 571, 2191, 2194, 1862, 6771, 6772, 6773, 5623
782, 2191, 587, 2192, 2194, 6775, 6776, 6777, 6772
783, 2194, 2192, 648, 2193, 6777, 6779, 6780, 6781
784, 1862, 2194, 2193, 745, 6773, 6781, 6783, 5613
785, 1067, 2195, 2197, 2150, 6785, 6786, 6787, 6631
786, 2195, 1115, 2127, 2197, 6789, 6538, 6790, 6786
787, 2197, 2127, 1074, 2196, 6790, 6549, 6792, 6793
788, 2150, 2197, 2196, 1079, 6787, 6793, 6795, 6620
789, 1045, 2198, 2201, 2094, 6797, 6798, 6799, 6435
790, 2198, 1004, 2199, 2201, 6801, 6802, 6803, 6798
791, 2201, 2199, 889, 2200, 6803, 6805, 6806, 6807
792, 2094, 2201, 2200, 1078, 6799, 6807, 6809, 6424
793, 962, 2202, 2206, 2205, 6811, 6812, 6813, 6814
794, 2202, 979, 2203, 2206, 6816, 6817, 6818, 6812
795, 2206, 2203, 894, 2204, 6818, 6820, 6821, 6822
796, 2205, 2206, 2204, 1089, 6813, 6822, 6824, 6825
797, 834, 2207, 2208, 1851, 6827, 6828, 6829, 5583
798, 2207, 980, 1428, 2208, 6831, 4166, 6832, 6828
799, 2208, 1428, 885, 1996, 6832, 4163, 6083, 6834
800, 1851, 2208, 1996, 804, 6829, 6834, 6080, 5572
801, 743, 1652, 2210, 1941, 4900, 6837, 6838, 5893
802, 1652, 827, 2209, 2210, 4895, 6840, 6841, 6837
803, 2210, 2209, 842, 2115, 6841, 6843, 6507, 6844
804, 1941, 2210, 2115, 744, 6838, 6844, 6504, 5897
805, 570, 2211, 2213, 2212, 6847, 6848, 6849, 6850
806, 2211, 588, 1942, 2213, 6852, 5901, 6853, 6848
807, 2213, 1942, 744, 2114, 6853, 5898, 6503, 6855
808, 2212, 2213, 2114, 654, 6849, 6855, 6500, 6857
809, 591, 2214, 2217, 2216, 6859, 6860, 6861, 6862
810, 2214, 650, 2215, 2217, 6864, 6865, 6866, 6860
811, 2217, 2215, 761, 2012, 6866, 6868, 6143, 6869
812, 2216, 2217, 2012, 568, 6861, 6869, 6140, 6871
813, 1068, 2218, 2221, 2080, 6873, 6874, 6875, 6389
814, 2218, 1114, 2219, 2221, 6877, 6878, 6879, 6874
815, 2221, 2219, 1042, 2220, 6879, 6881, 6882, 6883
816, 2080, 2221, 2220, 1081, 6875, 6883, 6885, 6378
817, 1107, 2222, 2226, 2225, 6887, 6888, 6889, 6890
818, 2222, 1127, 2223, 2226, 6892, 6893, 6894, 6888
819, 2226, 2223, 1003, 2224, 6894, 6896, 6897, 6898
820, 2225, 2226, 2224, 1063, 6889, 6898, 6900, 6901
821, 840, 2227, 2230, 1893, 6903, 6904, 6905, 5730
822, 2227, 715, 2228, 2230, 6907, 6908, 6909, 6904
823, 2230, 2228, 930, 2229, 6909, 6911, 6912, 6913
824, 1893, 2230, 2229, 882, 6905, 6913, 6915, 5733
825, 955, 2231, 2233, 2096, 6917, 6918, 6919, 6440
826, 2231, 805, 2232, 2233, 6921, 6922, 6923, 6918
827, 2233, 2232, 924, 1936, 6923, 6925, 5882, 6926
828, 2096, 2233, 1936, 1071, 6919, 6926, 5877, 6443
829, 1349, 1807, 2234, 1453, 5435, 6929, 6930, 4242
830, 1807, 1331, 1694, 2234, 5432, 5048, 6932, 6929
831, 2234, 1694, 1315, 1458, 6932, 5045, 4254, 6934
832, 1453, 2234, 1458, 1343, 6930, 6934, 4263, 4245
833, 827, 2235, 2236, 2209, 6937, 6938, 6939, 6840
834, 2235, 894, 2203, 2236, 6941, 6820, 6942, 6938
835, 2236, 2203, 979, 1823, 6942, 6817, 5492, 6944
836, 2209, 2236, 1823, 842, 6939, 6944, 5489, 6843
837, 1128, 1533, 2240, 2239, 4506, 6947, 6948, 6949
838, 1533, 895, 2237, 2240, 4501, 6951, 6952, 6947
839, 2240, 2237, 738, 2238, 6952, 6954, 6955, 6956
840, 2239, 2240, 2238, 981, 6948, 6956, 6958, 6959
841, 959, 2241, 2245, 2244, 6961, 6962, 6963, 6964
842, 2241, 1059, 2242, 2245, 6966, 6967, 6968, 6962
843, 2245, 2242, 831, 2243, 6968, 6970, 6971, 6972
844, 2244, 2245, 2243, 909, 6963, 6972, 6974, 6975
845, 590, 1794, 2249, 2248, 5387, 6977, 6978, 6979
846, 1794, 746, 2246, 2249, 5383, 6981, 6982, 6977
847, 2249, 2246, 652, 2247, 6982, 6984, 6985, 6986
848, 2248, 2249, 2247, 589, 6978, 6986, 6988, 6989
849, 815, 2250, 2252, 1655, 6991, 6992, 6993, 4909
850, 2250, 1018, 2251, 2252, 6995, 6996, 6997, 6992
851, 2252, 2251, 894, 2235, 6997, 6999, 6941, 7000
852, 1655, 2252, 2235, 827, 6993, 7000, 6937, 4898
853, 587, 2253, 2254, 2192, 7003, 7004, 7005, 6776
854, 2253, 592, 1950, 2254, 7007, 5930, 7008, 7004
855, 2254, 1950, 750, 1621, 7008, 5927, 4798, 7010
856, 2192, 2254, 1621, 648, 7005, 7010, 4795, 6779
857, 965, 1673, 2258, 2257, 4974, 7013, 7014, 7015
858, 1673, 1060, 2255, 2258, 4971, 7017, 7018, 7013
859, 2258, 2255, 940, 2256, 7018, 7020, 7021, 7022
860, 2257, 2258, 2256, 830, 7014, 7022, 7024, 7025
861, 1163, 2058, 2262, 2261, 6312, 7027, 7028, 7029
862, 2058, 1171, 2259, 2262, 6307, 7031, 7032, 7027
863, 2262, 2259, 1075, 2260, 7032, 7034, 7035, 7036
864, 2261, 2262, 2260, 1139, 7028, 7036, 7038, 7039
865, 1267, 2059, 2265, 1874, 6316, 7041, 7042, 5666
866, 2059, 1163, 2263, 2265, 6313, 7044, 7045, 7041
867, 2265, 2263, 1100, 2264, 7045, 7047, 7048, 7049
868, 1874, 2265, 2264, 1205, 7042, 7049, 7051, 5669
869, 589, 2247, 2268, 2267, 6988, 7053, 7054, 7055
870, 2247, 652, 2266, 2268, 6985, 7057, 7058, 7053
871, 2268, 2266, 762, 2030, 7058, 7060, 6209, 7061
872, 2267, 2268, 2030, 569, 7054, 7061, 6206, 7063
873, 668, 2269, 2271, 1975, 7065, 7066, 7067, 6011
874, 2269, 570, 2212, 2271, 7069, 6850, 7070, 7066
875, 2271, 2212, 654, 2270, 7070, 6857, 7072, 7073
876, 1975, 2271, 2270, 727, 7067, 7073, 7075, 6001
877, 762, 2266, 2274, 1850, 7060, 7077, 7078, 5579
878, 2266, 652, 2272, 2274, 7057, 7080, 7081, 7077
879, 2274, 2272, 920, 2273, 7081, 7083, 7084, 7085
880, 1850, 2274, 2273, 834, 7078, 7085, 7087, 5582
881, 840, 2275, 2278, 2227, 7089, 7090, 7091, 6903
882, 2275, 557, 2276, 2278, 7093, 7094, 7095, 7090
883, 2278, 2276, 675, 2277, 7095, 7097, 7098, 7099
884, 2227, 2278, 2277, 715, 7091, 7099, 7101, 6907
885, 674, 2279, 2281, 2017, 7103, 7104, 7105, 6161
886, 2279, 583, 2040, 2281, 7107, 6248, 7108, 7104
887, 2281, 2040, 643, 2280, 7108, 6245, 7110, 7111
888, 2017, 2281, 2280, 729, 7105, 7111, 7113, 6150
889, 753, 1848, 2282, 1986, 5574, 7115, 7116, 6043
890, 1848, 804, 1995, 2282, 5569, 6079, 7118, 7115
891, 2282, 1995, 846, 2180, 7118, 6076, 6739, 7120
892, 1986, 2282, 2180, 754, 7116, 7120, 6736, 6048
893, 920, 2272, 2283, 1896, 7083, 7123, 7124, 5745
894, 2272, 652, 2246, 2283, 7080, 6984, 7126, 7123
895, 2283, 2246, 746, 1529, 7126, 6981, 4494, 7128
896, 1896, 2283, 1529, 812, 7124, 7128, 4491, 5737
897, 593, 1834, 2286, 2285, 5528, 7131, 7132, 7133
898, 1834, 748, 2284, 2286, 5523, 7135, 7136, 7131
899, 2286, 2284, 650, 2214, 7136, 7138, 6864, 7139
900, 2285, 2286, 2214, 591, 7132, 7139, 6859, 7141
901, 559, 2287, 2289, 2288, 7143, 7144, 7145, 7146
902, 2287, 595, 1973, 2289, 7148, 6006, 7149, 7144
903, 2289, 1973, 741, 2137, 7149, 6003, 6585, 7151
904, 2288, 2289, 2137, 651, 7145, 7151, 6582, 7153
905, 761, 2215, 2292, 2006, 6868, 7155, 7156, 6116
906, 2215, 650, 2290, 2292, 6865, 7158, 7159, 7155
907, 2292, 2290, 922, 2291, 7159, 7161, 7162, 7163
908, 2006, 2292, 2291, 835, 7156, 7163, 7165, 6119
909, 802, 2293, 2296, 2295, 7167, 7168, 7169, 7170
910, 2293, 887, 2148, 2296, 7172, 6626, 7173, 7168
911, 2296, 2148, 1002, 2294, 7173, 6623, 7175, 7176
912, 2295, 2296, 2294, 844, 7169, 7176, 7178, 7179
913, 817, 1828, 2300, 2299, 5508, 7181, 7182, 7183
914, 1828, 917, 2297, 2300, 5505, 7185, 7186, 7181
915, 2300, 2297, 640, 2298, 7186, 7188, 7189, 7190
916, 2299, 2300, 2298, 764, 7182, 7190, 7192, 7193
917, 983, 1569, 2303, 2089, 4626, 7195, 7196, 6419
918, 1569, 906, 2301, 2303, 4621, 7198, 7199, 7195
919, 2303, 2301, 951, 2302, 7199, 7201, 7202, 7203
920, 2089, 2303, 2302, 1069, 7196, 7203, 7205, 6409
921, 1140, 2304, 2308, 2307, 7207, 7208, 7209, 7210
922, 2304, 987, 2305, 2308, 7212, 7213, 7214, 7208
923, 2308, 2305, 878, 2306, 7214, 7216, 7217, 7218
924, 2307, 2308, 2306, 1035, 7209, 7218, 7220, 7221
925, 1076, 2309, 2312, 2311, 7223, 7224, 7225, 7226
926, 2309, 1044, 2310, 2312, 7228, 7229, 7230, 7224
927, 2312, 2310, 1138, 2163, 7230, 7232, 6675, 7233
928, 2311, 2312, 2163, 1132, 7225, 7233, 6672, 7235
929, 1051, 2032, 2314, 2075, 6217, 7237, 7238, 6373
930, 2032, 905, 2313, 2314, 6213, 7240, 7241, 7237
931, 2314, 2313, 805, 2231, 7241, 7243, 6921, 7244
932, 2075, 2314, 2231, 955, 7238, 7244, 6917, 6364
933, 823, 2007, 2317, 2062, 6123, 7247, 7248, 6324
934, 2007, 835, 2315, 2317, 6120, 7250, 7251, 7247
935, 2317, 2315, 985, 2316, 7251, 7253, 7254, 7255
936, 2062, 2317, 2316, 892, 7248, 7255, 7257, 6327
937, 848, 2318, 2320, 1709, 7259, 7260, 7261, 5095
938, 2318, 874, 2319, 2320, 7263, 7264, 7265, 7260
939, 2320, 2319, 1009, 2106, 7265, 7267, 6477, 7268
940, 1709, 2320, 2106, 798, 7261, 7268, 6474, 5084
941, 562, 2321, 2323, 2322, 7271, 7272, 7273, 7274
942, 2321, 594, 1987, 2323, 7276, 6052, 7277, 7272
943, 2323, 1987, 754, 2179, 7277, 6049, 6735, 7279
944, 2322, 2323, 2179, 644, 7273, 7279, 6732, 7281
945, 1162, 2099, 2325, 1376, 6454, 7283, 7284, 3997
946, 2099, 1140, 2307, 2325, 6449, 7210, 7286, 7283
947, 2325, 2307, 1035, 2324, 7286, 7221, 7288, 7289
948, 1376, 2325, 2324, 1167, 7284, 7289, 7291, 3988
949, 742, 1607, 2328, 2327, 4750, 7293, 7294, 7295
950, 1607, 824, 2047, 2328, 4745, 6274, 7297, 7293
951, 2328, 2047, 931, 2326, 7297, 6271, 7299, 7300
952, 2327, 2328, 2326, 641, 7294, 7300, 7302, 7303
953, 718, 2329, 2332, 2331, 7305, 7306, 7307, 7308
954, 2329, 814, 2330, 2332, 7310, 7311, 7312, 7306
955, 2332, 2330, 729, 2280, 7312, 7314, 7113, 7315
956, 2331, 2332, 2280, 643, 7307, 7315, 7110, 7317
957, 670, 2333, 2334, 1952, 7319, 7320, 7321, 5935
958, 2333, 556, 2015, 2334, 7323, 6156, 7324, 7320
959, 2334, 2015, 826, 2121, 7324, 6153, 6532, 7326
960, 1952, 2334, 2121, 726, 7321, 7326, 6529, 5924
961, 996, 2335, 2338, 2337, 7329, 7330, 7331, 7332
962, 2335, 995, 2336, 2338, 7334, 7335, 7336, 7330
963, 2338, 2336, 1074, 2126, 7336, 7338, 6548, 7339
964, 2337, 2338, 2126, 1073, 7331, 7339, 6545, 7341
965, 922, 2290, 2340, 1919, 7161, 7343, 7344, 5823
966, 2290, 650, 2284, 2340, 7158, 7138, 7346, 7343
967, 2340, 2284, 748, 2339, 7346, 7135, 7348, 7349
968, 1919, 2340, 2339, 807, 7344, 7349, 7351, 5826
969, 730, 1707, 2344, 2343, 5090, 7353, 7354, 7355
970, 1707, 749, 2341, 2344, 5087, 7357, 7358, 7353
971, 2344, 2341, 609, 2342, 7358, 7360, 7361, 7362
972, 2343, 2344, 2342, 677, 7354, 7362, 7364, 7365
973, 1003, 2345, 2348, 2347, 7367, 7368, 7369, 7370
974, 2345, 951, 2301, 2348, 7372, 7201, 7373, 7368
975, 2348, 2301, 906, 2346, 7373, 7198, 7375, 7376
976, 2347, 2348, 2346, 801, 7369, 7376, 7378, 7379
977, 772, 2349, 2353, 2352, 7381, 7382, 7383, 7384
978, 2349, 759, 2350, 2353, 7386, 7387, 7388, 7382
979, 2353, 2350, 800, 2351, 7388, 7390, 7391, 7392
980, 2352, 2353, 2351, 908, 7383, 7392, 7394, 7395
981, 920, 1895, 2354, 2273, 5744, 7397, 7398, 7084
982, 1895, 1092, 1617, 2354, 5741, 4784, 7400, 7397
983, 2354, 1617, 980, 2207, 7400, 4781, 6831, 7402
984, 2273, 2354, 2207, 834, 7398, 7402, 6827, 7087
985, 672, 2355, 2357, 2037, 7405, 7406, 7407, 6237
986, 2355, 559, 2288, 2357, 7409, 7146, 7410, 7406
987, 2357, 2288, 651, 2356, 7410, 7153, 7412, 7413
988, 2037, 2357, 2356, 728, 7407, 7413, 7415, 6227
989, 1154, 2358, 2362, 2361, 7417, 7418, 7419, 7420
990, 2358, 1172, 2359, 2362, 7422, 7423, 7424, 7418
991, 2362, 2359, 1029, 2360, 7424, 7426, 7427, 7428
992, 2361, 2362, 2360, 1123, 7419, 7428, 7430, 7431
993, 601, 2363, 2366, 2365, 7433, 7434, 7435, 7436
994, 2363, 545, 2108, 2366, 7438, 6484, 7439, 7434
995, 2366, 2108, 634, 2364, 7439, 6479, 7441, 7442
996, 2365, 2366, 2364, 768, 7435, 7442, 7444, 7445
997, 1075, 2367, 2370, 2369, 7447, 7448, 7449, 7450
998, 2367, 1036, 1716, 2370, 7452, 5122, 7453, 7448
999, 2370, 1716, 879, 2368, 7453, 5119, 7455, 7456
1000, 2369, 2370, 2368, 999, 7449, 7456, 7458, 7459
1001, 552, 2371, 2375, 2374, 7461, 7462, 7463, 7464
1002, 2371, 606, 2372, 2375, 7466, 7467, 7468, 7462
1003, 2375, 2372, 681, 2373, 7468, 7470, 7471, 7472
1004, 2374, 2375, 2373, 638, 7463, 7472, 7474, 7475
1005, 844, 2376, 2379, 2295, 7477, 7478, 7479, 7179
1006, 2376, 737, 2377, 2379, 7481, 7482, 7483, 7478
1007, 2379, 2377, 771, 2378, 7483, 7485, 7486, 7487
1008, 2295, 2379, 2378, 802, 7479, 7487, 7489, 7170
1009, 995, 2380, 2382, 2336, 7491, 7492, 7493, 7335
1010, 2380, 1006, 2381, 2382, 7495, 7496, 7497, 7492
1011, 2382, 2381, 1079, 2196, 7497, 7499, 6795, 7500
1012, 2336, 2382, 2196, 1074, 7493, 7500, 6792, 7338
1013, 669, 2383, 2384, 1836, 7503, 7504, 7505, 5533
1014, 2383, 557, 2275, 2384, 7507, 7093, 7508, 7504
1015, 2384, 2275, 840, 1892, 7508, 7089, 5729, 7510
1016, 1836, 2384, 1892, 756, 7505, 7510, 5726, 5536
1017, 558, 2385, 2387, 2386, 7513, 7514, 7515, 7516
1018, 2385, 597, 2035, 2387, 7518, 6232, 7519, 7514
1019, 2387, 2035, 742, 2327, 7519, 6229, 7295, 7521
1020, 2386, 2387, 2327, 641, 7515, 7521, 7303, 7523
1021, 999, 2388, 2392, 2391, 7525, 7526, 7527, 7528
1022, 2388, 718, 2389, 2392, 7530, 7531, 7532, 7526
1023, 2392, 2389, 829, 2390, 7532, 7534, 7535, 7536
1024, 2391, 2392, 2390, 927, 7527, 7536, 7538, 7539
1025, 735, 2393, 2397, 2396, 7541, 7542, 7543, 7544
1026, 2393, 764, 2394, 2397, 7546, 7547, 7548, 7542
1027, 2397, 2394, 613, 2395, 7548, 7550, 7551, 7552
1028, 2396, 2397, 2395, 687, 7543, 7552, 7554, 7555
1029, 613, 2394, 2400, 2399, 7550, 7557, 7558, 7559
1030, 2394, 764, 2298, 2400, 7547, 7192, 7561, 7557
1031, 2400, 2298, 640, 2398, 7561, 7189, 7563, 7564
1032, 2399, 2400, 2398, 555, 7558, 7564, 7566, 7567
1033, 1035, 2401, 2404, 2324, 7569, 7570, 7571, 7288
1034, 2401, 1136, 2402, 2404, 7573, 7574, 7575, 7570
1035, 2404, 2402, 1236, 2403, 7575, 7577, 7578, 7579
1036, 2324, 2404, 2403, 1167, 7571, 7579, 7581, 7291
1037, 768, 2052, 2407, 2365, 6289, 7583, 7584, 7445
1038, 2052, 765, 2405, 2407, 6286, 7586, 7587, 7583
1039, 2407, 2405, 686, 2406, 7587, 7589, 7590, 7591
1040, 2365, 2407, 2406, 601, 7584, 7591, 7593, 7436
1041, 1103, 2408, 2411, 2410, 7595, 7596, 7597, 7598
1042, 2408, 1052, 2409, 2411, 7600, 7601, 7602, 7596
1043, 2411, 2409, 1134, 1813, 7602, 7604, 5456, 7605
1044, 2410, 2411, 1813, 1164, 7597, 7605, 5451, 7607
1045, 1170, 1791, 2414, 2413, 5378, 7609, 7610, 7611
1046, 1791, 954, 2412, 2414, 5375, 7613, 7614, 7609
1047, 2414, 2412, 1070, 1413, 7614, 7616, 4116, 7617
1048, 2413, 2414, 1413, 1102, 7610, 7617, 4111, 7619
1049, 671, 2415, 2418, 2417, 7621, 7622, 7623, 7624
1050, 2415, 562, 2322, 2418, 7626, 7274, 7627, 7622
1051, 2418, 2322, 644, 2416, 7627, 7281, 7629, 7630
1052, 2417, 2418, 2416, 747, 7623, 7630, 7632, 7633
1053, 1180, 2419, 2422, 1816, 7635, 7636, 7637, 5465
1054, 2419, 1209, 2420, 2422, 7639, 7640, 7641, 7636
1055, 2422, 2420, 1231, 2421, 7641, 7643, 7644, 7645
1056, 1816, 2422, 2421, 1164, 7637, 7645, 7647, 5454
1057, 734, 1887, 2426, 2425, 5714, 7649, 7650, 7651
1058, 1887, 832, 2423, 2426, 5711, 7653, 7654, 7649
1059, 2426, 2423, 608, 2424, 7654, 7656, 7657, 7658
1060, 2425, 2426, 2424, 685, 7650, 7658, 7660, 7661
1061, 1350, 2427, 2431, 2430, 7663, 7664, 7665, 7666
1062, 2427, 1312, 2428, 2431, 7668, 7669, 7670, 7664
1063, 2431, 2428, 1284, 2429, 7670, 7672, 7673, 7674
1064, 2430, 2431, 2429, 1336, 7665, 7674, 7676, 7677
1065, 908, 2432, 2435, 2352, 7679, 7680, 7681, 7395
1066, 2432, 889, 2433, 2435, 7683, 7684, 7685, 7680
1067, 2435, 2433, 853, 2434, 7685, 7687, 7688, 7689
1068, 2352, 2435, 2434, 772, 7681, 7689, 7691, 7384
1069, 756, 1891, 2437, 1837, 5725, 7693, 7694, 5537
1070, 1891, 904, 2436, 2437, 5721, 7696, 7697, 7693
1071, 2437, 2436, 807, 2339, 7697, 7699, 7351, 7700
1072, 1837, 2437, 2339, 748, 7694, 7700, 7348, 5526
1073, 921, 2184, 2438, 2136, 6743, 7703, 7704, 6577
1074, 2184, 803, 1609, 2438, 6753, 4758, 7706, 7703
1075, 2438, 1609, 728, 2356, 7706, 4755, 7415, 7708
1076, 2136, 2438, 2356, 651, 7704, 7708, 7412, 6581
1077, 582, 1740, 2441, 2440, 5204, 7711, 7712, 7713
1078, 1740, 816, 2439, 2441, 5201, 7715, 7716, 7711
1079, 2441, 2439, 715, 2277, 7716, 7718, 7101, 7719
1080, 2440, 2441, 2277, 675, 7712, 7719, 7098, 7721
1081, 919, 2026, 2442, 2113, 6196, 7723, 7724, 6495
1082, 2026, 808, 1576, 2442, 6193, 4650, 7726, 7723
1083, 2442, 1576, 727, 2270, 7726, 4647, 7075, 7728
1084, 2113, 2442, 2270, 654, 7724, 7728, 7072, 6499
1085, 1001, 2443, 2446, 2445, 7731, 7732, 7733, 7734
1086, 2443, 1007, 2444, 2446, 7736, 7737, 7738, 7732
1087, 2446, 2444, 1081, 2220, 7738, 7740, 6885, 7741
1088, 2445, 2446, 2220, 1042, 7733, 7741, 6882, 7743
1089, 997, 2447, 2450, 2023, 7745, 7746, 7747, 6185
1090, 2447, 937, 2448, 2450, 7749, 7750, 7751, 7746
1091, 2450, 2448, 833, 2449, 7751, 7753, 7754, 7755
1092, 2023, 2450, 2449, 994, 7747, 7755, 7757, 6175
1093, 546, 2142, 2454, 2453, 6606, 7759, 7760, 7761
1094, 2142, 635, 2451, 2454, 6601, 7763, 7764, 7759
1095, 2454, 2451, 769, 2452, 7764, 7766, 7767, 7768
1096, 2453, 2454, 2452, 603, 7760, 7768, 7770, 7771
1097, 1150, 2455, 2457, 1632, 7773, 7774, 7775, 4831
1098, 2455, 1169, 1590, 2457, 7777, 4694, 7778, 7774
1099, 2457, 1590, 1196, 2456, 7778, 4691, 7780, 7781
1100, 1632, 2457, 2456, 1146, 7775, 7781, 7783, 4836
1101, 852, 2458, 2462, 2461, 7785, 7786, 7787, 7788
1102, 2458, 952, 2459, 2462, 7790, 7791, 7792, 7786
1103, 2462, 2459, 1080, 2460, 7792, 7794, 7795, 7796
1104, 2461, 2462, 2460, 936, 7787, 7796, 7798, 7799
1105, 1319, 1501, 2465, 1669, 4404, 7801, 7802, 4959
1106, 1501, 1261, 2463, 2465, 4401, 7804, 7805, 7801
1107, 2465, 2463, 1203, 2464, 7805, 7807, 7808, 7809
1108, 1669, 2465, 2464, 1280, 7802, 7809, 7811, 4962
1109, 995, 2335, 2469, 2468, 7334, 7813, 7814, 7815
1110, 2335, 996, 2466, 2469, 7329, 7817, 7818, 7813
1111, 2469, 2466, 819, 2467, 7818, 7820, 7821, 7822
1112, 2468, 2469, 2467, 926, 7814, 7822, 7824, 7825
1113, 1136, 2401, 2470, 2056, 7573, 7827, 7828, 6302
1114, 2401, 1035, 2306, 2470, 7569, 7220, 7830, 7827
1115, 2470, 2306, 878, 2182, 7830, 7217, 6748, 7832
1116, 2056, 2470, 2182, 963, 7828, 7832, 6745, 6305
1117, 1282, 2471, 2474, 1955, 7835, 7836, 7837, 5943
1118, 2471, 1337, 2472, 2474, 7839, 7840, 7841, 7836
1119, 2474, 2472, 1342, 2473, 7841, 7843, 7844, 7845
1120, 1955, 2474, 2473, 1318, 7837, 7845, 7847, 5946
1121, 900, 2475, 2479, 2478, 7849, 7850, 7851, 7852
1122, 2475, 1005, 2476, 2479, 7854, 7855, 7856, 7850
1123, 2479, 2476, 856, 2477, 7856, 7858, 7859, 7860
1124, 2478, 2479, 2477, 777, 7851, 7860, 7862, 7863
1125, 765, 2051, 2483, 2482, 6285, 7865, 7866, 7867
1126, 2051, 914, 2480, 2483, 6281, 7869, 7870, 7865
1127, 2483, 2480, 818, 2481, 7870, 7872, 7873, 7874
1128, 2482, 2483, 2481, 766, 7866, 7874, 7876, 7877
1129, 981, 2238, 2486, 1483, 6958, 7879, 7880, 4343
1130, 2238, 738, 2484, 2486, 6955, 7882, 7883, 7879
1131, 2486, 2484, 629, 2485, 7883, 7885, 7886, 7887
1132, 1483, 2486, 2485, 864, 7880, 7887, 7889, 4332
1133, 759, 2349, 2490, 2489, 7386, 7891, 7892, 7893
1134, 2349, 772, 2487, 2490, 7381, 7895, 7896, 7891
1135, 2490, 2487, 604, 2488, 7896, 7898, 7899, 7900
1136, 2489, 2490, 2488, 684, 7892, 7900, 7902, 7903
1137, 1260, 2171, 2493, 1957, 6705, 7905, 7906, 5951
1138, 2171, 1223, 2491, 2493, 6701, 7908, 7909, 7905
1139, 2493, 2491, 1166, 2492, 7909, 7911, 7912, 7913
1140, 1957, 2493, 2492, 1263, 7906, 7913, 7915, 5940
1141, 1174, 2494, 2497, 2496, 7917, 7918, 7919, 7920
1142, 2494, 952, 2495, 2497, 7922, 7923, 7924, 7918
1143, 2497, 2495, 1052, 2408, 7924, 7926, 7600, 7927
1144, 2496, 2497, 2408, 1103, 7919, 7927, 7595, 7929
1145, 896, 1905, 2501, 2500, 5776, 7931, 7932, 7933
1146, 1905, 918, 2498, 2501, 5773, 7935, 7936, 7931
1147, 2501, 2498, 735, 2499, 7936, 7938, 7939, 7940
1148, 2500, 2501, 2499, 847, 7932, 7940, 7942, 7943
1149, 814, 2329, 2503, 2502, 7310, 7945, 7946, 7947
1150, 2329, 718, 2388, 2503, 7305, 7530, 7949, 7945
1151, 2503, 2388, 999, 2368, 7949, 7525, 7458, 7951
1152, 2502, 2503, 2368, 879, 7946, 7951, 7455, 7953
1153, 1166, 2504, 2508, 2507, 7955, 7956, 7957, 7958
1154, 2504, 1126, 2505, 2508, 7960, 7961, 7962, 7956
1155, 2508, 2505, 1057, 2506, 7962, 7964, 7965, 7966
1156, 2507, 2508, 2506, 1185, 7957, 7966, 7968, 7969
1157, 678, 2509, 2512, 2511, 7971, 7972, 7973, 7974
1158, 2509, 555, 2398, 2512, 7976, 7566, 7977, 7972
1159, 2512, 2398, 640, 2510, 7977, 7563, 7979, 7980
1160, 2511, 2512, 2510, 757, 7973, 7980, 7982, 7983
1161, 643, 2039, 2514, 2331, 6244, 7985, 7986, 7317
1162, 2039, 673, 2513, 2514, 6239, 7988, 7989, 7985
1163, 2514, 2513, 829, 2389, 7989, 7991, 7534, 7992
1164, 2331, 2514, 2389, 718, 7986, 7992, 7531, 7308
1165, 1221, 1883, 2517, 1764, 5702, 7995, 7996, 5281
1166, 1883, 1245, 2515, 2517, 5699, 7998, 7999, 7995
1167, 2517, 2515, 1212, 2516, 7999, 8001, 8002, 8003
1168, 1764, 2517, 2516, 1156, 7996, 8003, 8005, 5286
1169, 1301, 1881, 2520, 1640, 5694, 8007, 8008, 4861
1170, 1881, 1270, 2518, 2520, 5689, 8010, 8011, 8007
1171, 2520, 2518, 1231, 2519, 8011, 8013, 8014, 8015
1172, 1640, 2520, 2519, 1300, 8008, 8015, 8017, 4850
1173, 1214, 1687, 2524, 2523, 5022, 8019, 8020, 8021
1174, 1687, 1265, 2521, 2524, 5019, 8023, 8024, 8019
1175, 2524, 2521, 1109, 2522, 8024, 8026, 8027, 8028
1176, 2523, 2524, 2522, 1184, 8020, 8028, 8030, 8031
1177, 926, 2525, 2527, 2468, 8033, 8034, 8035, 7825
1178, 2525, 898, 2526, 2527, 8037, 8038, 8039, 8034
1179, 2527, 2526, 1006, 2380, 8039, 8041, 7495, 8042
1180, 2468, 2527, 2380, 995, 8035, 8042, 7491, 7815
1181, 930, 2228, 2528, 2088, 6911, 8045, 8046, 6415
1182, 2228, 715, 2439, 2528, 6908, 7718, 8048, 8045
1183, 2528, 2439, 816, 1570, 8048, 7715, 4630, 8050
1184, 2088, 2528, 1570, 983, 8046, 8050, 4627, 6418
1185, 679, 2529, 2530, 2134, 8053, 8054, 8055, 6575
1186, 2529, 552, 2374, 2530, 8057, 7464, 8058, 8054
1187, 2530, 2374, 638, 2069, 8058, 7475, 6354, 8060
1188, 2134, 2530, 2069, 731, 8055, 8060, 6351, 6565
1189, 819, 2531, 2535, 2534, 8063, 8064, 8065, 8066
1190, 2531, 838, 2532, 2535, 8068, 8069, 8070, 8064
1191, 2535, 2532, 681, 2533, 8070, 8072, 8073, 8074
1192, 2534, 2535, 2533, 767, 8065, 8074, 8076, 8077
1193, 1131, 1898, 2539, 2538, 5752, 8079, 8080, 8081
1194, 1898, 1037, 2536, 2539, 5747, 8083, 8084, 8079
1195, 2539, 2536, 1109, 2537, 8084, 8086, 8087, 8088
1196, 2538, 2539, 2537, 1165, 8080, 8088, 8090, 8091
1197, 934, 2540, 2543, 2542, 8093, 8094, 8095, 8096
1198, 2540, 938, 2541, 2543, 8098, 8099, 8100, 8094
1199, 2543, 2541, 1007, 2443, 8100, 8102, 7736, 8103
1200, 2542, 2543, 2443, 1001, 8095, 8103, 7731, 8105
1201, 933, 2544, 2546, 2105, 8107, 8108, 8109, 6470
1202, 2544, 639, 2545, 2546, 8111, 8112, 8113, 8108
1203, 2546, 2545, 749, 1706, 8113, 8115, 5086, 8116
1204, 2105, 2546, 1706, 798, 8109, 8116, 5081, 6473
1205, 801, 2346, 2549, 2548, 7378, 8119, 8120, 8121
1206, 2346, 906, 1572, 2549, 7375, 4624, 8123, 8119
1207, 2549, 1572, 825, 2547, 8123, 4635, 8125, 8126
1208, 2548, 2549, 2547, 757, 8120, 8126, 8128, 8129
1209, 665, 2550, 2552, 1861, 8131, 8132, 8133, 5619
1210, 2550, 127, 128, 2552, 8135, 207, 8136, 8132
1211, 2552, 128, 129, 2551, 8136, 208, 8138, 8139
1212, 1861, 2552, 2551, 571, 8133, 8139, 8141, 5622
1213, 570, 2553, 2555, 2211, 8143, 8144, 8145, 6847
1214, 2553, 123, 124, 2555, 8147, 203, 8148, 8144
1215, 2555, 124, 125, 2554, 8148, 204, 8150, 8151
1216, 2211, 2555, 2554, 588, 8145, 8151, 8153, 6852
1217, 668, 2556, 2557, 2269, 8155, 8156, 8157, 7065
1218, 2556, 121, 122, 2557, 8159, 201, 8160, 8156
1219, 2557, 122, 123, 2553, 8160, 202, 8147, 8162
1220, 2269, 2557, 2553, 570, 8157, 8162, 8143, 7069
1221, 717, 2558, 2562, 2561, 8165, 8166, 8167, 8168
1222, 2558, 841, 2559, 2562, 8170, 8171, 8172, 8166
1223, 2562, 2559, 600, 2560, 8172, 8174, 8175, 8176
1224, 2561, 2562, 2560, 689, 8167, 8176, 8178, 8179
1225, 882, 2229, 2563, 1401, 6915, 8181, 8182, 4077
1226, 2229, 930, 2087, 2563, 6912, 6414, 8184, 8181
1227, 2563, 2087, 1070, 2412, 8184, 6411, 7616, 8186
1228, 1401, 2563, 2412, 954, 8182, 8186, 7613, 4066
1229, 733, 2564, 2567, 2186, 8189, 8190, 8191, 6755
1230, 2564, 907, 2565, 2567, 8193, 8194, 8195, 8190
1231, 2567, 2565, 852, 2566, 8195, 8197, 8198, 8199
1232, 2186, 2567, 2566, 755, 8191, 8199, 8201, 6760
1233, 588, 2554, 2568, 1943, 8153, 8203, 8204, 5902
1234, 2554, 125, 126, 2568, 8150, 205, 8206, 8203
1235, 2568, 126, 127, 2550, 8206, 206, 8135, 8208
1236, 1943, 2568, 2550, 665, 8204, 8208, 8131, 5905
1237, 667, 2569, 2571, 2029, 8211, 8212, 8213, 6201
1238, 2569, 359, 360, 2571, 8215, 439, 8216, 8212
1239, 2571, 360, 361, 2570, 8216, 440, 8218, 8219
1240, 2029, 2571, 2570, 569, 8213, 8219, 8221, 6205
1241, 569, 2570, 2573, 2267, 8221, 8223, 8224, 7063
1242, 2570, 361, 362, 2573, 8218, 441, 8226, 8223
1243, 2573, 362, 363, 2572, 8226, 442, 8228, 8229
1244, 2267, 2573, 2572, 589, 8224, 8229, 8231, 7055
1245, 590, 2248, 2575, 2574, 6979, 8233, 8234, 8235
1246, 2248, 589, 2572, 2575, 6989, 8231, 8237, 8233
1247, 2575, 2572, 363, 364, 8237, 8228, 443, 8239
1248, 2574, 2575, 364, 365, 8234, 8239, 444, 8241
1249, 1139, 2576, 2578, 2261, 8243, 8244, 8245, 7039
1250, 2576, 1055, 2577, 2578, 8247, 8248, 8249, 8244
1251, 2578, 2577, 1100, 2263, 8249, 8251, 7047, 8252
1252, 2261, 2578, 2263, 1163, 8245, 8252, 7044, 7029
1253, 666, 2579, 2581, 2011, 8255, 8256, 8257, 6135
1254, 2579, 367, 368, 2581, 8259, 447, 8260, 8256
1255, 2581, 368, 369, 2580, 8260, 448, 8262, 8263
1256, 2011, 2581, 2580, 568, 8257, 8263, 8265, 6139
1257, 590, 2574, 2582, 1795, 8235, 8267, 8268, 5388
1258, 2574, 365, 366, 2582, 8241, 445, 8270, 8267
1259, 2582, 366, 367, 2579, 8270, 446, 8259, 8272
1260, 1795, 2582, 2579, 666, 8268, 8272, 8255, 5391
1261, 1139, 2583, 2585, 2576, 8275, 8276, 8277, 8243
1262, 2583, 927, 2584, 2585, 8279, 8280, 8281, 8276
1263, 2585, 2584, 982, 1509, 8281, 8283, 4430, 8284
1264, 2576, 2585, 1509, 1055, 8277, 8284, 4427, 8247
1265, 571, 2551, 2587, 2191, 8141, 8287, 8288, 6771
1266, 2551, 129, 130, 2587, 8138, 209, 8290, 8287
1267, 2587, 130, 131, 2586, 8290, 210, 8292, 8293
1268, 2191, 2587, 2586, 587, 8288, 8293, 8295, 6775
1269, 592, 2253, 2589, 2588, 7007, 8297, 8298, 8299
1270, 2253, 587, 2586, 2589, 7003, 8295, 8301, 8297
1271, 2589, 2586, 131, 132, 8301, 8292, 211, 8303
1272, 2588, 2589, 132, 133, 8298, 8303, 212, 8305
1273, 723, 2157, 2593, 2592, 6656, 8307, 8308, 8309
1274, 2157, 843, 2590, 2593, 6653, 8311, 8312, 8307
1275, 2593, 2590, 602, 2591, 8312, 8314, 8315, 8316
1276, 2592, 2593, 2591, 690, 8308, 8316, 8318, 8319
1277, 897, 1900, 2597, 2596, 5760, 8321, 8322, 8323
1278, 1900, 993, 2594, 2597, 5757, 8325, 8326, 8321
1279, 2597, 2594, 719, 2595, 8326, 8328, 8329, 8330
1280, 2596, 2597, 2595, 838, 8322, 8330, 8332, 8333
1281, 568, 2580, 2599, 2216, 8265, 8335, 8336, 6871
1282, 2580, 369, 370, 2599, 8262, 449, 8338, 8335
1283, 2599, 370, 371, 2598, 8338, 450, 8340, 8341
1284, 2216, 2599, 2598, 591, 8336, 8341, 8343, 6862
1285, 1297, 1423, 2602, 1661, 4148, 8345, 8346, 4925
1286, 1423, 1323, 2600, 2602, 4143, 8348, 8349, 8345
1287, 2602, 2600, 1325, 2601, 8349, 8351, 8352, 8353
1288, 1661, 2602, 2601, 1248, 8346, 8353, 8355, 4929
1289, 594, 2603, 2604, 1988, 8357, 8358, 8359, 6053
1290, 2603, 357, 358, 2604, 8361, 437, 8362, 8358
1291, 2604, 358, 359, 2569, 8362, 438, 8215, 8364
1292, 1988, 2604, 2569, 667, 8359, 8364, 8211, 6056
1293, 1291, 2605, 2608, 2607, 8367, 8368, 8369, 8370
1294, 2605, 1307, 2606, 2608, 8372, 8373, 8374, 8368
1295, 2608, 2606, 1337, 2471, 8374, 8376, 7839, 8377
1296, 2607, 2608, 2471, 1282, 8369, 8377, 7835, 8379
1297, 595, 2609, 2610, 1974, 8381, 8382, 8383, 6007
1298, 2609, 119, 120, 2610, 8385, 199, 8386, 8382
1299, 2610, 120, 121, 2556, 8386, 200, 8159, 8388
1300, 1974, 2610, 2556, 668, 8383, 8388, 8155, 6010
1301, 677, 2611, 2613, 2343, 8391, 8392, 8393, 7365
1302, 2611, 558, 2386, 2613, 8395, 7516, 8396, 8392
1303, 2613, 2386, 641, 2612, 8396, 7523, 8398, 8399
1304, 2343, 2613, 2612, 730, 8393, 8399, 8401, 7355
1305, 992, 1831, 2614, 1939, 5520, 8403, 8404, 5891
1306, 1831, 1146, 2456, 2614, 5517, 7783, 8406, 8403
1307, 2614, 2456, 1196, 2097, 8406, 7780, 6447, 8408
1308, 1939, 2614, 2097, 1071, 8404, 8408, 6444, 5880
1309, 1266, 1679, 2617, 1842, 4994, 8411, 8412, 5553
1310, 1679, 1210, 2615, 2617, 4991, 8414, 8415, 8411
1311, 2617, 2615, 1289, 2616, 8415, 8417, 8418, 8419
1312, 1842, 2617, 2616, 1283, 8412, 8419, 8421, 5542
1313, 1062, 2169, 2618, 1587, 6691, 8423, 8424, 4683
1314, 2169, 960, 2009, 2618, 6699, 6133, 8426, 8423
1315, 2618, 2009, 1145, 1854, 8426, 6130, 5594, 8428
1316, 1587, 2618, 1854, 1120, 8424, 8428, 5591, 4672
1317, 736, 2619, 2623, 2622, 8431, 8432, 8433, 8434
1318, 2619, 767, 2620, 2623, 8436, 8437, 8438, 8432
1319, 2623, 2620, 611, 2621, 8438, 8440, 8441, 8442
1320, 2622, 2623, 2621, 691, 8433, 8442, 8444, 8445
1321, 591, 2598, 2625, 2285, 8343, 8447, 8448, 7141
1322, 2598, 371, 372, 2625, 8340, 451, 8450, 8447
1323, 2625, 372, 373, 2624, 8450, 452, 8452, 8453
1324, 2285, 2625, 2624, 593, 8448, 8453, 8455, 7133
1325, 1282, 1954, 2628, 2607, 5942, 8457, 8458, 8379
1326, 1954, 1263, 2626, 2628, 5937, 8460, 8461, 8457
1327, 2628, 2626, 1202, 2627, 8461, 8463, 8464, 8465
1328, 2607, 2628, 2627, 1291, 8458, 8465, 8467, 8370
1329, 559, 2629, 2630, 2287, 8469, 8470, 8471, 7143
1330, 2629, 117, 118, 2630, 8473, 197, 8474, 8470
1331, 2630, 118, 119, 2609, 8474, 198, 8385, 8476
1332, 2287, 2630, 2609, 595, 8471, 8476, 8381, 7148
1333, 1065, 2631, 2632, 1801, 8479, 8480, 8481, 5413
1334, 2631, 818, 2480, 2632, 8483, 7872, 8484, 8480
1335, 2632, 2480, 914, 1777, 8484, 7869, 5330, 8486
1336, 1801, 2632, 1777, 990, 8481, 8486, 5325, 5416
1337, 551, 2633, 2636, 2635, 8489, 8490, 8491, 8492
1338, 2633, 605, 2187, 2636, 8494, 6764, 8495, 8490
1339, 2636, 2187, 755, 2634, 8495, 6761, 8497, 8498
1340, 2635, 2636, 2634, 642, 8491, 8498, 8500, 8501
1341, 7, 2637, 2640, 515, 8503, 8504, 8505, 522
1342, 2637, 664, 2638, 2640, 8507, 8508, 8509, 8504
1343, 2640, 2638, 554, 2639, 8509, 8511, 8512, 8513
1344, 515, 2640, 2639, 516, 8505, 8513, 8515, 523
1345, 611, 2620, 2642, 2641, 8440, 8517, 8518, 8519
1346, 2620, 767, 2533, 2642, 8437, 8076, 8521, 8517
1347, 2642, 2533, 681, 2372, 8521, 8073, 7470, 8523
1348, 2641, 2642, 2372, 606, 8518, 8523, 7467, 8525
1349, 1295, 1666, 2644, 2643, 4941, 8527, 8528, 8529
1350, 1666, 1313, 1648, 2644, 4949, 4888, 8531, 8527
1351, 2644, 1648, 1336, 2429, 8531, 4885, 7676, 8533
1352, 2643, 2644, 2429, 1284, 8528, 8533, 7673, 8535
1353, 1133, 2645, 2649, 2648, 8537, 8538, 8539, 8540
1354, 2645, 1178, 2646, 2649, 8542, 8543, 8544, 8538
1355, 2649, 2646, 967, 2647, 8544, 8546, 8547, 8548
1356, 2648, 2649, 2647, 1064, 8539, 8548, 8550, 8551
1357, 1229, 2650, 2654, 2653, 8553, 8554, 8555, 8556
1358, 2650, 1230, 2651, 2654, 8558, 8559, 8560, 8554
1359, 2654, 2651, 1107, 2652, 8560, 8562, 8563, 8564
1360, 2653, 2654, 2652, 1178, 8555, 8564, 8566, 8567
1361, 671, 2655, 2657, 2415, 8569, 8570, 8571, 7621
1362, 2655, 353, 354, 2657, 8573, 433, 8574, 8570
1363, 2657, 354, 355, 2656, 8574, 434, 8576, 8577
1364, 2415, 2657, 2656, 562, 8571, 8577, 8579, 7626
1365, 594, 2321, 2658, 2603, 7276, 8581, 8582, 8357
1366, 2321, 562, 2656, 2658, 7271, 8579, 8584, 8581
1367, 2658, 2656, 355, 356, 8584, 8576, 435, 8586
1368, 2603, 2658, 356, 357, 8582, 8586, 436, 8361
1369, 676, 2659, 2661, 2189, 8589, 8590, 8591, 6769
1370, 2659, 561, 1977, 2661, 8593, 6020, 8594, 8590
1371, 2661, 1977, 836, 2660, 8594, 6017, 8596, 8597
1372, 2189, 2661, 2660, 733, 8591, 8597, 8599, 6758
1373, 1165, 1677, 2664, 2538, 4986, 8601, 8602, 8091
1374, 1677, 1179, 2662, 2664, 4981, 8604, 8605, 8601
1375, 2664, 2662, 1030, 2663, 8605, 8607, 8608, 8609
1376, 2538, 2664, 2663, 1131, 8602, 8609, 8611, 8081
1377, 1164, 2421, 2666, 2410, 7647, 8613, 8614, 7607
1378, 2421, 1231, 2518, 2666, 7644, 8013, 8616, 8613
1379, 2666, 2518, 1270, 2665, 8616, 8010, 8618, 8619
1380, 2410, 2666, 2665, 1103, 8614, 8619, 8621, 7598
1381, 672, 2667, 2668, 2355, 8623, 8624, 8625, 7405
1382, 2667, 115, 116, 2668, 8627, 195, 8628, 8624
1383, 2668, 116, 117, 2629, 8628, 196, 8473, 8630
1384, 2355, 2668, 2629, 559, 8625, 8630, 8469, 7409
1385, 593, 2624, 2670, 1835, 8455, 8633, 8634, 5529
1386, 2624, 373, 374, 2670, 8452, 453, 8636, 8633
1387, 2670, 374, 375, 2669, 8636, 454, 8638, 8639
1388, 1835, 2670, 2669, 669, 8634, 8639, 8641, 5532
1389, 592, 2588, 2672, 1951, 8299, 8643, 8644, 5931
1390, 2588, 133, 134, 2672, 8305, 213, 8646, 8643
1391, 2672, 134, 135, 2671, 8646, 214, 8648, 8649
1392, 1951, 2672, 2671, 670, 8644, 8649, 8651, 5934
1393, 795, 2673, 2676, 2067, 8653, 8654, 8655, 6345
1394, 2673, 989, 2674, 2676, 8657, 8658, 8659, 8654
1395, 2676, 2674, 1082, 2675, 8659, 8661, 8662, 8663
1396, 2067, 2676, 2675, 910, 8655, 8663, 8665, 6334
1397, 773, 2677, 2681, 2680, 8667, 8668, 8669, 8670
1398, 2677, 847, 2678, 2681, 8672, 8673, 8674, 8668
1399, 2681, 2678, 572, 2679, 8674, 8676, 8677, 8678
1400, 2680, 2681, 2679, 694, 8669, 8678, 8680, 8681
1401, 1073, 2682, 2684, 2337, 8683, 8684, 8685, 7341
1402, 2682, 1037, 1901, 2684, 8687, 5750, 8688, 8684
1403, 2684, 1901, 897, 2683, 8688, 5761, 8690, 8691
1404, 2337, 2684, 2683, 996, 8685, 8691, 8693, 7332
1405, 924, 2232, 2686, 2178, 6925, 8695, 8696, 6727
1406, 2232, 805, 2685, 2686, 6922, 8698, 8699, 8695
1407, 2686, 2685, 747, 2416, 8699, 8701, 7632, 8702
1408, 2178, 2686, 2416, 644, 8696, 8702, 7629, 6731
1409, 596, 2687, 2689, 2688, 8705, 8706, 8707, 8708
1410, 2687, 351, 352, 2689, 8710, 431, 8711, 8706
1411, 2689, 352, 353, 2655, 8711, 432, 8573, 8713
1412, 2688, 2689, 2655, 671, 8707, 8713, 8569, 8715
1413, 801, 2690, 2691, 2347, 8717, 8718, 8719, 7379
1414, 2690, 917, 1827, 2691, 8721, 5504, 8722, 8718
1415, 2691, 1827, 1063, 2224, 8722, 5501, 6900, 8724
1416, 2347, 2691, 2224, 1003, 8719, 8724, 6897, 7370
1417, 669, 2669, 2693, 2383, 8641, 8727, 8728, 7503
1418, 2669, 375, 376, 2693, 8638, 455, 8730, 8727
1419, 2693, 376, 377, 2692, 8730, 456, 8732, 8733
1420, 2383, 2693, 2692, 557, 8728, 8733, 8735, 7507
1421, 597, 2694, 2695, 2036, 8737, 8738, 8739, 6233
1422, 2694, 113, 114, 2695, 8741, 193, 8742, 8738
1423, 2695, 114, 115, 2667, 8742, 194, 8627, 8744
1424, 2036, 2695, 2667, 672, 8739, 8744, 8623, 6236
1425, 670, 2671, 2697, 2333, 8651, 8747, 8748, 7319
1426, 2671, 135, 136, 2697, 8648, 215, 8750, 8747
1427, 2697, 136, 137, 2696, 8750, 216, 8752, 8753
1428, 2333, 2697, 2696, 556, 8748, 8753, 8755, 7323
1429, 1225, 2698, 2701, 1720, 8757, 8758, 8759, 5130
1430, 2698, 1137, 2699, 2701, 8761, 8762, 8763, 8758
1431, 2701, 2699, 1031, 2700, 8763, 8765, 8766, 8767
1432, 1720, 2701, 2700, 1188, 8759, 8767, 8769, 5133
1433, 676, 2702, 2704, 2659, 8771, 8772, 8773, 8589
1434, 2702, 347, 348, 2704, 8775, 427, 8776, 8772
1435, 2704, 348, 349, 2703, 8776, 428, 8778, 8779
1436, 2659, 2704, 2703, 561, 8773, 8779, 8781, 8593
1437, 596, 1978, 2705, 2687, 6024, 8783, 8784, 8705
1438, 1978, 561, 2703, 2705, 6021, 8781, 8786, 8783
1439, 2705, 2703, 349, 350, 8786, 8778, 429, 8788
1440, 2687, 2705, 350, 351, 8784, 8788, 430, 8710
1441, 599, 2706, 2707, 1742, 8791, 8792, 8793, 5209
1442, 2706, 678, 2511, 2707, 8795, 7974, 8796, 8792
1443, 2707, 2511, 757, 2547, 8796, 7983, 8128, 8798
1444, 1742, 2707, 2547, 825, 8793, 8798, 8125, 5199
1445, 1327, 2708, 2710, 2709, 8801, 8802, 8803, 8804
1446, 2708, 1216, 1915, 2710, 8806, 5811, 8807, 8802
1447, 2710, 1915, 1161, 2129, 8807, 5808, 6558, 8809
1448, 2709, 2710, 2129, 1254, 8803, 8809, 6555, 8811
1449, 925, 2711, 2714, 2713, 8813, 8814, 8815, 8816
1450, 2711, 645, 2712, 2714, 8818, 8819, 8820, 8814
1451, 2714, 2712, 766, 2481, 8820, 8822, 7876, 8823
1452, 2713, 2714, 2481, 818, 8815, 8823, 7873, 8825
1453, 898, 2525, 2718, 2717, 8037, 8827, 8828, 8829
1454, 2525, 926, 2715, 2718, 8033, 8831, 8832, 8827
1455, 2718, 2715, 736, 2716, 8832, 8834, 8835, 8836
1456, 2717, 2718, 2716, 855, 8828, 8836, 8838, 8839
1457, 597, 2385, 2720, 2694, 7518, 8841, 8842, 8737
1458, 2385, 558, 2719, 2720, 7513, 8844, 8845, 8841
1459, 2720, 2719, 111, 112, 8845, 8847, 191, 8848
1460, 2694, 2720, 112, 113, 8842, 8848, 192, 8741
1461, 677, 2721, 2722, 2611, 8851, 8852, 8853, 8391
1462, 2721, 109, 110, 2722, 8855, 189, 8856, 8852
1463, 2722, 110, 111, 2719, 8856, 190, 8847, 8858
1464, 2611, 2722, 2719, 558, 8853, 8858, 8844, 8395
1465, 760, 2723, 2726, 2145, 8861, 8862, 8863, 6615
1466, 2723, 831, 2724, 2726, 8865, 8866, 8867, 8862
1467, 2726, 2724, 939, 2725, 8867, 8869, 8870, 8871
1468, 2145, 2726, 2725, 635, 8863, 8871, 8873, 6604
1469, 912, 2727, 2731, 2730, 8875, 8876, 8877, 8878
1470, 2727, 998, 2728, 2731, 8880, 8881, 8882, 8876
1471, 2731, 2728, 717, 2729, 8882, 8884, 8885, 8886
1472, 2730, 2731, 2729, 854, 8877, 8886, 8888, 8889
1473, 1260, 1956, 2734, 2172, 5950, 8891, 8892, 6706
1474, 1956, 1318, 2732, 2734, 5947, 8894, 8895, 8891
1475, 2734, 2732, 1287, 2733, 8895, 8897, 8898, 8899
1476, 2172, 2734, 2733, 1268, 8892, 8899, 8901, 6709
1477, 556, 2696, 2736, 2016, 8755, 8903, 8904, 6157
1478, 2696, 137, 138, 2736, 8752, 217, 8906, 8903
1479, 2736, 138, 139, 2735, 8906, 218, 8908, 8909
1480, 2016, 2736, 2735, 674, 8904, 8909, 8911, 6160
1481, 557, 2692, 2738, 2276, 8735, 8913, 8914, 7094
1482, 2692, 377, 378, 2738, 8732, 457, 8916, 8913
1483, 2738, 378, 379, 2737, 8916, 458, 8918, 8919
1484, 2276, 2738, 2737, 675, 8914, 8919, 8921, 7097
1485, 833, 2739, 2742, 2741, 8923, 8924, 8925, 8926
1486, 2739, 763, 2740, 2742, 8928, 8929, 8930, 8924
1487, 2742, 2740, 680, 2064, 8930, 8932, 6336, 8933
1488, 2741, 2742, 2064, 910, 8925, 8933, 6331, 8935
1489, 757, 2510, 2743, 2548, 7982, 8937, 8938, 8129
1490, 2510, 640, 2297, 2743, 7979, 7188, 8940, 8937
1491, 2743, 2297, 917, 2690, 8940, 7185, 8721, 8942
1492, 2548, 2743, 2690, 801, 8938, 8942, 8717, 8121
1493, 758, 2082, 2745, 2111, 6396, 8945, 8946, 6493
1494, 2082, 830, 2256, 2745, 6391, 7024, 8948, 8945
1495, 2745, 2256, 940, 2744, 8948, 7021, 8950, 8951
1496, 2111, 2745, 2744, 634, 8946, 8951, 8953, 6482
1497, 1308, 1456, 2748, 2153, 4256, 8955, 8956, 6638
1498, 1456, 1315, 2746, 2748, 4251, 8958, 8959, 8955
1499, 2748, 2746, 1252, 2747, 8959, 8961, 8962, 8963
1500, 2153, 2748, 2747, 1298, 8956, 8963, 8965, 6641
1501, 951, 2345, 2750, 2749, 7372, 8967, 8968, 8969
1502, 2345, 1003, 2223, 2750, 7367, 6896, 8971, 8967
1503, 2750, 2223, 1127, 1625, 8971, 6893, 4812, 8973
1504, 2749, 2750, 1625, 1028, 8968, 8973, 4809, 8975
1505, 765, 2482, 2753, 2405, 7867, 8977, 8978, 7586
1506, 2482, 766, 2751, 2753, 7877, 8980, 8981, 8977
1507, 2753, 2751, 564, 2752, 8981, 8983, 8984, 8985
1508, 2405, 2753, 2752, 686, 8978, 8985, 8987, 7589
1509, 610, 2754, 2756, 2755, 8989, 8990, 8991, 8992
1510, 2754, 603, 2452, 2756, 8994, 7770, 8995, 8990
1511, 2756, 2452, 769, 2065, 8995, 7767, 6340, 8997
1512, 2755, 2756, 2065, 680, 8991, 8997, 6337, 8999
1513, 755, 2566, 2758, 2634, 8201, 9001, 9002, 8497
1514, 2566, 852, 2461, 2758, 8198, 7788, 9004, 9001
1515, 2758, 2461, 936, 2757, 9004, 7799, 9006, 9007
1516, 2634, 2758, 2757, 642, 9002, 9007, 9009, 8500
1517, 818, 2631, 2761, 2713, 8483, 9011, 9012, 8825
1518, 2631, 1065, 2759, 2761, 8479, 9014, 9015, 9011
1519, 2761, 2759, 991, 2760, 9015, 9017, 9018, 9019
1520, 2713, 2761, 2760, 925, 9012, 9019, 9021, 8816
1521, 938, 2540, 2765, 2764, 8098, 9023, 9024, 9025
1522, 2540, 934, 2762, 2765, 8093, 9027, 9028, 9023
1523, 2765, 2762, 849, 2763, 9028, 9030, 9031, 9032
1524, 2764, 2765, 2763, 857, 9024, 9032, 9034, 9035
1525, 1130, 2091, 2769, 2768, 6426, 9037, 9038, 9039
1526, 2091, 1078, 2766, 2769, 6421, 9041, 9042, 9037
1527, 2769, 2766, 953, 2767, 9042, 9044, 9045, 9046
1528, 2768, 2769, 2767, 1137, 9038, 9046, 9048, 9049
1529, 1215, 2770, 2774, 2773, 9051, 9052, 9053, 9054
1530, 2770, 1224, 2771, 2774, 9056, 9057, 9058, 9052
1531, 2774, 2771, 1110, 2772, 9058, 9060, 9061, 9062
1532, 2773, 2774, 2772, 1181, 9053, 9062, 9064, 9065
1533, 1042, 2775, 2778, 2445, 9067, 9068, 9069, 7743
1534, 2775, 1097, 2776, 2778, 9071, 9072, 9073, 9068
1535, 2778, 2776, 1039, 2777, 9073, 9075, 9076, 9077
1536, 2445, 2778, 2777, 1001, 9069, 9077, 9079, 7734
1537, 674, 2735, 2780, 2279, 8911, 9081, 9082, 7103
1538, 2735, 139, 140, 2780, 8908, 219, 9084, 9081
1539, 2780, 140, 141, 2779, 9084, 220, 9086, 9087
1540, 2279, 2780, 2779, 583, 9082, 9087, 9089, 7107
1541, 598, 2041, 2782, 2781, 6252, 9091, 9092, 9093
1542, 2041, 583, 2779, 2782, 6249, 9089, 9095, 9091
1543, 2782, 2779, 141, 142, 9095, 9086, 221, 9097
1544, 2781, 2782, 142, 143, 9092, 9097, 222, 9099
1545, 956, 2783, 2787, 2786, 9101, 9102, 9103, 9104
1546, 2783, 1077, 2784, 2787, 9106, 9107, 9108, 9102
1547, 2787, 2784, 969, 2785, 9108, 9110, 9111, 9112
1548, 2786, 2787, 2785, 886, 9103, 9112, 9114, 9115
1549, 887, 2293, 2790, 2789, 7172, 9117, 9118, 9119
1550, 2293, 802, 2788, 2790, 7167, 9121, 9122, 9117
1551, 2790, 2788, 937, 2447, 9122, 9124, 7749, 9125
1552, 2789, 2790, 2447, 997, 9118, 9125, 7745, 9127
1553, 851, 1888, 2793, 2792, 5718, 9129, 9130, 9131
1554, 1888, 734, 2791, 2793, 5715, 9133, 9134, 9129
1555, 2793, 2791, 639, 2544, 9134, 9136, 8111, 9137
1556, 2792, 2793, 2544, 933, 9130, 9137, 8107, 9139
1557, 1097, 2794, 2797, 2776, 9141, 9142, 9143, 9072
1558, 2794, 1160, 2795, 2797, 9145, 9146, 9147, 9142
1559, 2797, 2795, 1113, 2796, 9147, 9149, 9150, 9151
1560, 2776, 2797, 2796, 1039, 9143, 9151, 9153, 9075
1561, 675, 2737, 2799, 2440, 8921, 9155, 9156, 7721
1562, 2737, 379, 380, 2799, 8918, 459, 9158, 9155
1563, 2799, 380, 381, 2798, 9158, 460, 9160, 9161
1564, 2440, 2799, 2798, 582, 9156, 9161, 9163, 7713
1565, 599, 1741, 2801, 2800, 5208, 9165, 9166, 9167
1566, 1741, 582, 2798, 2801, 5205, 9163, 9169, 9165
1567, 2801, 2798, 381, 382, 9169, 9160, 461, 9171
1568, 2800, 2801, 382, 383, 9166, 9171, 462, 9173
1569, 605, 2802, 2803, 2188, 9175, 9176, 9177, 6765
1570, 2802, 345, 346, 2803, 9179, 425, 9180, 9176
1571, 2803, 346, 347, 2702, 9180, 426, 8775, 9182
1572, 2188, 2803, 2702, 676, 9177, 9182, 8771, 6768
1573, 763, 2804, 2808, 2807, 9185, 9186, 9187, 9188
1574, 2804, 646, 2805, 2808, 9190, 9191, 9192, 9186
1575, 2808, 2805, 565, 2806, 9192, 9194, 9195, 9196
1576, 2807, 2808, 2806, 688, 9187, 9196, 9198, 9199
1577, 933, 2104, 2811, 2792, 6469, 9201, 9202, 9139
1578, 2104, 1061, 2809, 2811, 6465, 9204, 9205, 9201
1579, 2811, 2809, 958, 2810, 9205, 9207, 9208, 9209
1580, 2792, 2811, 2810, 851, 9202, 9209, 9211, 9131
1581, 1064, 1903, 2813, 2648, 5768, 9213, 9214, 8551
1582, 1903, 969, 2784, 2813, 5763, 9110, 9216, 9213
1583, 2813, 2784, 1077, 2812, 9216, 9107, 9218, 9219
1584, 2648, 2813, 2812, 1133, 9214, 9219, 9221, 8540
1585, 1043, 1878, 2817, 2816, 5686, 9223, 9224, 9225
1586, 1878, 1072, 2814, 2817, 5683, 9227, 9228, 9223
1587, 2817, 2814, 911, 2815, 9228, 9230, 9231, 9232
1588, 2816, 2817, 2815, 998, 9224, 9232, 9234, 9235
1589, 999, 2391, 2818, 2369, 7528, 9237, 9238, 7459
1590, 2391, 927, 2583, 2818, 7539, 8279, 9240, 9237
1591, 2818, 2583, 1139, 2260, 9240, 8275, 7038, 9242
1592, 2369, 2818, 2260, 1075, 9238, 9242, 7035, 7450
1593, 609, 2819, 2820, 2342, 9245, 9246, 9247, 7361
1594, 2819, 107, 108, 2820, 9249, 187, 9250, 9246
1595, 2820, 108, 109, 2721, 9250, 188, 8855, 9252
1596, 2342, 2820, 2721, 677, 9247, 9252, 8851, 7364
1597, 1132, 2821, 2824, 2311, 9255, 9256, 9257, 7235
1598, 2821, 1187, 2822, 2824, 9259, 9260, 9261, 9256
1599, 2824, 2822, 959, 2823, 9261, 9263, 9264, 9265
1600, 2311, 2824, 2823, 1076, 9257, 9265, 9267, 7226
1601, 991, 2825, 2829, 2828, 9269, 9270, 9271, 9272
1602, 2825, 1038, 2826, 2829, 9274, 9275, 9276, 9270
1603, 2829, 2826, 956, 2827, 9276, 9278, 9279, 9280
1604, 2828, 2829, 2827, 932, 9271, 9280, 9282, 9283
1605, 1203, 1747, 2831, 2464, 5214, 9285, 9286, 7808
1606, 1747, 1247, 2830, 2831, 5225, 9288, 9289, 9285
1607, 2831, 2830, 1311, 1991, 9289, 9291, 6063, 9292
1608, 2464, 2831, 1991, 1280, 9286, 9292, 6059, 7811
1609, 1230, 2650, 2835, 2834, 8558, 9295, 9296, 9297
1610, 2650, 1229, 2832, 2835, 8553, 9299, 9300, 9295
1611, 2835, 2832, 1272, 2833, 9300, 9302, 9303, 9304
1612, 2834, 2835, 2833, 1262, 9296, 9304, 9306, 9307
1613, 1293, 1525, 2837, 1686, 4482, 9309, 9310, 5015
1614, 1525, 1289, 2615, 2837, 4479, 8417, 9312, 9309
1615, 2837, 2615, 1210, 2836, 9312, 8414, 9314, 9315
1616, 1686, 2837, 2836, 1265, 9310, 9315, 9317, 5018
1617, 775, 2838, 2842, 2841, 9319, 9320, 9321, 9322
1618, 2838, 806, 2839, 2842, 9324, 9325, 9326, 9320
1619, 2842, 2839, 776, 2840, 9326, 9328, 9329, 9330
1620, 2841, 2842, 2840, 780, 9321, 9330, 9332, 9333
1621, 737, 2843, 2846, 2377, 9335, 9336, 9337, 7482
1622, 2843, 695, 2844, 2846, 9339, 9340, 9341, 9336
1623, 2846, 2844, 612, 2845, 9341, 9343, 9344, 9345
1624, 2377, 2846, 2845, 771, 9337, 9345, 9347, 7485
1625, 763, 2739, 2848, 2804, 8928, 9349, 9350, 9185
1626, 2739, 833, 2448, 2848, 8923, 7753, 9352, 9349
1627, 2848, 2448, 937, 2847, 9352, 7750, 9354, 9355
1628, 2804, 2848, 2847, 646, 9350, 9355, 9357, 9190
1629, 1036, 2367, 2850, 1757, 7452, 9359, 9360, 5258
1630, 2367, 1075, 2259, 2850, 7447, 7034, 9362, 9359
1631, 2850, 2259, 1171, 2849, 9362, 7031, 9364, 9365
1632, 1757, 2850, 2849, 1118, 9360, 9365, 9367, 5261
1633, 941, 2851, 2855, 2854, 9369, 9370, 9371, 9372
1634, 2851, 935, 2852, 2855, 9374, 9375, 9376, 9370
1635, 2855, 2852, 845, 2853, 9376, 9378, 9379, 9380
1636, 2854, 2855, 2853, 859, 9371, 9380, 9382, 9383
1637, 953, 2856, 2859, 2858, 9385, 9386, 9387, 9388
1638, 2856, 908, 2351, 2859, 9390, 7394, 9391, 9386
1639, 2859, 2351, 800, 2857, 9391, 7391, 9393, 9394
1640, 2858, 2859, 2857, 1008, 9387, 9394, 9396, 9397
1641, 932, 2827, 2862, 2861, 9282, 9399, 9400, 9401
1642, 2827, 956, 2786, 2862, 9279, 9104, 9403, 9399
1643, 2862, 2786, 886, 2860, 9403, 9115, 9405, 9406
1644, 2861, 2862, 2860, 806, 9400, 9406, 9408, 9409
1645, 1105, 2863, 2867, 2866, 9411, 9412, 9413, 9414
1646, 2863, 1125, 2864, 2867, 9416, 9417, 9418, 9412
1647, 2867, 2864, 950, 2865, 9418, 9420, 9421, 9422
1648, 2866, 2867, 2865, 1059, 9413, 9422, 9424, 9425
1649, 1286, 1595, 2871, 2870, 4712, 9427, 9428, 9429
1650, 1595, 1259, 2868, 2871, 4709, 9431, 9432, 9427
1651, 2871, 2868, 1212, 2869, 9432, 9434, 9435, 9436
1652, 2870, 2871, 2869, 1316, 9428, 9436, 9438, 9439
1653, 1038, 2872, 2874, 2826, 9441, 9442, 9443, 9275
1654, 2872, 1106, 2873, 2874, 9445, 9446, 9447, 9442
1655, 2874, 2873, 1077, 2783, 9447, 9449, 9106, 9450
1656, 2826, 2874, 2783, 956, 9443, 9450, 9101, 9278
1657, 768, 2364, 2876, 2053, 7444, 9453, 9454, 6290
1658, 2364, 634, 2744, 2876, 7441, 8953, 9456, 9453
1659, 2876, 2744, 940, 2875, 9456, 8950, 9458, 9459
1660, 2053, 2876, 2875, 796, 9454, 9459, 9461, 6293
1661, 750, 1949, 2877, 1622, 5926, 9463, 9464, 4799
1662, 1949, 726, 2120, 2877, 5921, 6528, 9466, 9463
1663, 2877, 2120, 928, 2168, 9466, 6525, 6696, 9468
1664, 1622, 2877, 2168, 811, 9464, 9468, 6693, 4802
1665, 604, 2487, 2880, 2879, 7898, 9471, 9472, 9473
1666, 2487, 772, 2434, 2880, 7895, 7691, 9475, 9471
1667, 2880, 2434, 853, 2878, 9475, 7688, 9477, 9478
1668, 2879, 2880, 2878, 692, 9472, 9478, 9480, 9481
1669, 958, 2881, 2884, 2883, 9483, 9484, 9485, 9486
1670, 2881, 1182, 2882, 2884, 9488, 9489, 9490, 9484
1671, 2884, 2882, 1114, 2218, 9490, 9492, 6877, 9493
1672, 2883, 2884, 2218, 1068, 9485, 9493, 6873, 9495
1673, 1001, 2777, 2887, 2542, 9079, 9497, 9498, 8105
1674, 2777, 1039, 2885, 2887, 9076, 9500, 9501, 9497
1675, 2887, 2885, 966, 2886, 9501, 9503, 9504, 9505
1676, 2542, 2887, 2886, 934, 9498, 9505, 9507, 8096
1677, 886, 2785, 2890, 2889, 9114, 9509, 9510, 9511
1678, 2785, 969, 1906, 2890, 9111, 5766, 9513, 9509
1679, 2890, 1906, 896, 2888, 9513, 5777, 9515, 9516
1680, 2889, 2890, 2888, 850, 9510, 9516, 9518, 9519
1681, 925, 2760, 2893, 2892, 9021, 9521, 9522, 9523
1682, 2760, 991, 2828, 2893, 9018, 9272, 9525, 9521
1683, 2893, 2828, 932, 2891, 9525, 9283, 9527, 9528
1684, 2892, 2893, 2891, 820, 9522, 9528, 9530, 9531
1685, 769, 2451, 2895, 2066, 7766, 9533, 9534, 6341
1686, 2451, 635, 2725, 2895, 7763, 8873, 9536, 9533
1687, 2895, 2725, 939, 2894, 9536, 8870, 9538, 9539
1688, 2066, 2895, 2894, 795, 9534, 9539, 9541, 6344
1689, 874, 1969, 2896, 2319, 5992, 9543, 9544, 7264
1690, 1969, 1057, 2505, 2896, 5989, 7964, 9546, 9543
1691, 2896, 2505, 1126, 1699, 9546, 7961, 5064, 9548
1692, 2319, 2896, 1699, 1009, 9544, 9548, 5061, 7267
1693, 1178, 2645, 2899, 2653, 8542, 9551, 9552, 8567
1694, 2645, 1133, 2897, 2899, 8537, 9554, 9555, 9551
1695, 2899, 2897, 1159, 2898, 9555, 9557, 9558, 9559
1696, 2653, 2899, 2898, 1229, 9552, 9559, 9561, 8556
1697, 1000, 2900, 2902, 2078, 9563, 9564, 9565, 6381
1698, 2900, 725, 2901, 2902, 9567, 9568, 9569, 9564
1699, 2902, 2901, 832, 1886, 9569, 9571, 5710, 9572
1700, 2078, 2902, 1886, 915, 9565, 9572, 5705, 6384
1701, 1004, 2903, 2905, 2199, 9575, 9576, 9577, 6802
1702, 2903, 724, 2904, 2905, 9579, 9580, 9581, 9576
1703, 2905, 2904, 853, 2433, 9581, 9583, 7687, 9584
1704, 2199, 2905, 2433, 889, 9577, 9584, 7684, 6805
1705, 1184, 2124, 2907, 2523, 6540, 9587, 9588, 8031
1706, 2124, 1115, 2906, 2907, 6535, 9590, 9591, 9587
1707, 2907, 2906, 1176, 1871, 9591, 9593, 5657, 9594
1708, 2523, 2907, 1871, 1214, 9588, 9594, 5654, 8021
1709, 1232, 2908, 2912, 2911, 9597, 9598, 9599, 9600
1710, 2908, 1153, 2909, 2912, 9602, 9603, 9604, 9598
1711, 2912, 2909, 1024, 2910, 9604, 9606, 9607, 9608
1712, 2911, 2912, 2910, 1125, 9599, 9608, 9610, 9611
1713, 1209, 2913, 2915, 2420, 9613, 9614, 9615, 7640
1714, 2913, 1273, 2914, 2915, 9617, 9618, 9619, 9614
1715, 2915, 2914, 1300, 2519, 9619, 9621, 8017, 9622
1716, 2420, 2915, 2519, 1231, 9615, 9622, 8014, 7643
1717, 817, 2916, 2917, 1829, 9625, 9626, 9627, 5509
1718, 2916, 918, 1904, 2917, 9629, 5772, 9630, 9626
1719, 2917, 1904, 1064, 2647, 9630, 5769, 8550, 9632
1720, 1829, 2917, 2647, 967, 9627, 9632, 8547, 5498
1721, 1067, 2149, 2919, 2918, 6630, 9635, 9636, 9637
1722, 2149, 887, 2789, 2919, 6627, 9119, 9639, 9635
1723, 2919, 2789, 997, 2022, 9639, 9127, 6184, 9641
1724, 2918, 2919, 2022, 1135, 9636, 9641, 6181, 9643
1725, 549, 2920, 2922, 2921, 9645, 9646, 9647, 9648
1726, 2920, 609, 2341, 2922, 9650, 7360, 9651, 9646
1727, 2922, 2341, 749, 2545, 9651, 7357, 8115, 9653
1728, 2921, 2922, 2545, 639, 9647, 9653, 8112, 9655
1729, 820, 2891, 2924, 2923, 9530, 9657, 9658, 9659
1730, 2891, 932, 2861, 2924, 9527, 9401, 9661, 9657
1731, 2924, 2861, 806, 2838, 9661, 9409, 9324, 9663
1732, 2923, 2924, 2838, 775, 9658, 9663, 9319, 9665
1733, 1080, 2925, 2927, 2460, 9667, 9668, 9669, 7795
1734, 2925, 1008, 2857, 2927, 9671, 9396, 9672, 9668
1735, 2927, 2857, 800, 2926, 9672, 9393, 9674, 9675
1736, 2460, 2927, 2926, 936, 9669, 9675, 9677, 7798
1737, 931, 2928, 2929, 2326, 9679, 9680, 9681, 7299
1738, 2928, 848, 1708, 2929, 9683, 5094, 9684, 9680
1739, 2929, 1708, 730, 2612, 9684, 5091, 8401, 9686
1740, 2326, 2929, 2612, 641, 9681, 9686, 8398, 7302
1741, 687, 2930, 2931, 2396, 9689, 9690, 9691, 7555
1742, 2930, 572, 2678, 2931, 9693, 8676, 9694, 9690
1743, 2931, 2678, 847, 2499, 9694, 8673, 7942, 9696
1744, 2396, 2931, 2499, 735, 9691, 9696, 7939, 7544
1745, 847, 2677, 2933, 2500, 8672, 9699, 9700, 7943
1746, 2677, 773, 2932, 2933, 8667, 9702, 9703, 9699
1747, 2933, 2932, 850, 2888, 9703, 9705, 9518, 9706
1748, 2500, 2933, 2888, 896, 9700, 9706, 9515, 7933
1749, 551, 2934, 2935, 2633, 9709, 9710, 9711, 8489
1750, 2934, 343, 344, 2935, 9713, 423, 9714, 9710
1751, 2935, 344, 345, 2802, 9714, 424, 9179, 9716
1752, 2633, 2935, 2802, 605, 9711, 9716, 9175, 8494
1753, 683, 2936, 2938, 2144, 9719, 9720, 9721, 6611
1754, 2936, 602, 2590, 2938, 9723, 8314, 9724, 9720
1755, 2938, 2590, 843, 2937, 9724, 8311, 9726, 9727
1756, 2144, 2938, 2937, 760, 9721, 9727, 9729, 6614
1757, 1182, 2881, 2939, 1731, 9488, 9731, 9732, 5171
1758, 2881, 958, 2809, 2939, 9483, 9207, 9734, 9731
1759, 2939, 2809, 1061, 1697, 9734, 9204, 5056, 9736
1760, 1731, 2939, 1697, 1111, 9732, 9736, 5051, 5174
1761, 598, 2781, 2941, 2176, 9093, 9739, 9740, 6725
1762, 2781, 143, 144, 2941, 9099, 223, 9742, 9739
1763, 2941, 144, 145, 2940, 9742, 224, 9744, 9745
1764, 2176, 2941, 2940, 607, 9740, 9745, 9747, 6717
1765, 1137, 2698, 2943, 2768, 8761, 9749, 9750, 9049
1766, 2698, 1225, 2942, 2943, 8757, 9752, 9753, 9749
1767, 2943, 2942, 1183, 2161, 9753, 9755, 6667, 9756
1768, 2768, 2943, 2161, 1130, 9750, 9756, 6663, 9039
1769, 994, 2449, 2944, 1983, 7757, 9759, 9760, 6037
1770, 2449, 833, 2741, 2944, 7754, 8926, 9762, 9759
1771, 2944, 2741, 910, 2675, 9762, 8935, 8665, 9764
1772, 1983, 2944, 2675, 1082, 9760, 9764, 8662, 6040
1773, 998, 2727, 2947, 2816, 8880, 9767, 9768, 9235
1774, 2727, 912, 2945, 2947, 8875, 9770, 9771, 9767
1775, 2947, 2945, 966, 2946, 9771, 9773, 9774, 9775
1776, 2816, 2947, 2946, 1043, 9768, 9775, 9777, 9225
1777, 1186, 2948, 2950, 2949, 9779, 9780, 9781, 9782
1778, 2948, 1114, 2882, 2950, 9784, 9492, 9785, 9780
1779, 2950, 2882, 1182, 1730, 9785, 9489, 5170, 9787
1780, 2949, 2950, 1730, 1213, 9781, 9787, 5165, 9789
1781, 682, 2951, 2952, 2110, 9791, 9792, 9793, 6489
1782, 2951, 600, 2559, 2952, 9795, 8174, 9796, 9792
1783, 2952, 2559, 841, 2083, 9796, 8171, 6400, 9798
1784, 2110, 2952, 2083, 758, 9793, 9798, 6397, 6492
1785, 774, 2953, 2957, 2956, 9801, 9802, 9803, 9804
1786, 2953, 855, 2954, 2957, 9806, 9807, 9808, 9802
1787, 2957, 2954, 573, 2955, 9808, 9810, 9811, 9812
1788, 2956, 2957, 2955, 701, 9803, 9812, 9814, 9815
1789, 1044, 2309, 2961, 2960, 7228, 9817, 9818, 9819
1790, 2309, 1076, 2958, 2961, 7223, 9821, 9822, 9817
1791, 2961, 2958, 890, 2959, 9822, 9824, 9825, 9826
1792, 2960, 2961, 2959, 1005, 9818, 9826, 9828, 9829
1793, 1000, 2077, 2964, 2963, 6380, 9831, 9832, 9833
1794, 2077, 1081, 2444, 2964, 6375, 7740, 9835, 9831
1795, 2964, 2444, 1007, 2962, 9835, 7737, 9837, 9838
1796, 2963, 2964, 2962, 916, 9832, 9838, 9840, 9841
1797, 952, 2458, 2966, 2495, 7790, 9843, 9844, 7923
1798, 2458, 852, 2565, 2966, 7785, 8197, 9846, 9843
1799, 2966, 2565, 907, 2965, 9846, 8194, 9848, 9849
1800, 2495, 2966, 2965, 1052, 9844, 9849, 9851, 7926
1801, 838, 2531, 2967, 2596, 8068, 9853, 9854, 8333
1802, 2531, 819, 2466, 2967, 8063, 7820, 9856, 9853
1803, 2967, 2466, 996, 2683, 9856, 7817, 8693, 9858
1804, 2596, 2967, 2683, 897, 9854, 9858, 8690, 8323
1805, 1202, 2968, 2972, 2971, 9861, 9862, 9863, 9864
1806, 2968, 1185, 2969, 2972, 9866, 9867, 9868, 9862
1807, 2972, 2969, 1096, 2970, 9868, 9870, 9871, 9872
1808, 2971, 2972, 2970, 1226, 9863, 9872, 9874, 9875
1809, 806, 2860, 2974, 2839, 9408, 9877, 9878, 9325
1810, 2860, 886, 2889, 2974, 9405, 9511, 9880, 9877
1811, 2974, 2889, 850, 2973, 9880, 9519, 9882, 9883
1812, 2839, 2974, 2973, 776, 9878, 9883, 9885, 9328
1813, 957, 2975, 2977, 2976, 9887, 9888, 9889, 9890
1814, 2975, 1049, 1792, 2977, 9892, 5373, 9893, 9888
1815, 2977, 1792, 1193, 1753, 9893, 5381, 5248, 9895
1816, 2976, 2977, 1753, 1117, 9889, 9895, 5245, 9897
1817, 1097, 2775, 2979, 2978, 9071, 9899, 9900, 9901
1818, 2775, 1042, 2219, 2979, 9067, 6881, 9903, 9899
1819, 2979, 2219, 1114, 2948, 9903, 6878, 9784, 9905
1820, 2978, 2979, 2948, 1186, 9900, 9905, 9779, 9907
1821, 1045, 2093, 2982, 2981, 6434, 9909, 9910, 9911
1822, 2093, 1138, 2310, 2982, 6431, 7232, 9913, 9909
1823, 2982, 2310, 1044, 2980, 9913, 7229, 9915, 9916
1824, 2981, 2982, 2980, 961, 9910, 9916, 9918, 9919
1825, 1004, 2198, 2985, 2984, 6801, 9921, 9922, 9923
1826, 2198, 1045, 2981, 2985, 6797, 9911, 9925, 9921
1827, 2985, 2981, 961, 2983, 9925, 9919, 9927, 9928
1828, 2984, 2985, 2983, 899, 9922, 9928, 9930, 9931
1829, 599, 2800, 2987, 2706, 9167, 9933, 9934, 8791
1830, 2800, 383, 384, 2987, 9173, 463, 9936, 9933
1831, 2987, 384, 385, 2986, 9936, 464, 9938, 9939
1832, 2706, 2987, 2986, 678, 9934, 9939, 9941, 8795
1833, 1043, 2946, 2988, 1879, 9777, 9943, 9944, 5687
1834, 2946, 966, 2885, 2988, 9774, 9503, 9946, 9943
1835, 2988, 2885, 1039, 2796, 9946, 9500, 9153, 9948
1836, 1879, 2988, 2796, 1113, 9944, 9948, 9150, 5676
1837, 778, 2989, 2993, 2992, 9951, 9952, 9953, 9954
1838, 2989, 854, 2990, 2993, 9956, 9957, 9958, 9952
1839, 2993, 2990, 566, 2991, 9958, 9960, 9961, 9962
1840, 2992, 2993, 2991, 697, 9953, 9962, 9964, 9965
1841, 1005, 2475, 2995, 2960, 7854, 9967, 9968, 9829
1842, 2475, 900, 2994, 2995, 7849, 9970, 9971, 9967
1843, 2995, 2994, 961, 2980, 9971, 9973, 9918, 9974
1844, 2960, 2995, 2980, 1044, 9968, 9974, 9915, 9819
1845, 1038, 2825, 2997, 2996, 9274, 9977, 9978, 9979
1846, 2825, 991, 2759, 2997, 9269, 9017, 9981, 9977
1847, 2997, 2759, 1065, 1800, 9981, 9014, 5412, 9983
1848, 2996, 2997, 1800, 1112, 9978, 9983, 5407, 9985
1849, 1181, 1876, 2999, 2773, 5678, 9987, 9988, 9065
1850, 1876, 1113, 2795, 2999, 5673, 9149, 9990, 9987
1851, 2999, 2795, 1160, 2998, 9990, 9146, 9992, 9993
1852, 2773, 2999, 2998, 1215, 9988, 9993, 9995, 9054
1853, 725, 2900, 3002, 3001, 9567, 9997, 9998, 9999
1854, 2900, 1000, 2963, 3002, 9563, 9833, 10001, 9997
1855, 3002, 2963, 916, 3000, 10001, 9841, 10003, 10004
1856, 3001, 3002, 3000, 860, 9998, 10004, 10006, 10007
1857, 820, 3003, 3005, 2892, 10009, 10010, 10011, 9531
1858, 3003, 770, 3004, 3005, 10013, 10014, 10015, 10010
1859, 3005, 3004, 645, 2711, 10015, 10017, 8818, 10018
1860, 2892, 3005, 2711, 925, 10011, 10018, 8813, 9523
1861, 564, 2751, 3008, 3007, 8983, 10021, 10022, 10023
1862, 2751, 766, 2712, 3008, 8980, 8822, 10025, 10021
1863, 3008, 2712, 645, 3006, 10025, 8819, 10027, 10028
1864, 3007, 3008, 3006, 619, 10022, 10028, 10030, 10031
1865, 759, 3009, 3010, 2350, 10033, 10034, 10035, 7387
1866, 3009, 642, 2757, 3010, 10037, 9009, 10038, 10034
1867, 3010, 2757, 936, 2926, 10038, 9006, 9677, 10040
1868, 2350, 3010, 2926, 800, 10035, 10040, 9674, 7390
1869, 1002, 2147, 3013, 3012, 6622, 10043, 10044, 10045
1870, 2147, 1079, 2381, 3013, 6617, 7499, 10047, 10043
1871, 3013, 2381, 1006, 3011, 10047, 7496, 10049, 10050
1872, 3012, 3013, 3011, 935, 10044, 10050, 10052, 10053
1873, 934, 2886, 3015, 2762, 9507, 10055, 10056, 9027
1874, 2886, 966, 2945, 3015, 9504, 9773, 10058, 10055
1875, 3015, 2945, 912, 3014, 10058, 9770, 10060, 10061
1876, 2762, 3015, 3014, 849, 10056, 10061, 10063, 9030
1877, 608, 2423, 3018, 3017, 7656, 10065, 10066, 10067
1878, 2423, 832, 2901, 3018, 7653, 9571, 10069, 10065
1879, 3018, 2901, 725, 3016, 10069, 9568, 10071, 10072
1880, 3017, 3018, 3016, 693, 10066, 10072, 10074, 10075
1881, 777, 2477, 3022, 3021, 7862, 10077, 10078, 10079
1882, 2477, 856, 3019, 3022, 7859, 10081, 10082, 10077
1883, 3022, 3019, 575, 3020, 10082, 10084, 10085, 10086
1884, 3021, 3022, 3020, 705, 10078, 10086, 10088, 10089
1885, 773, 3023, 3025, 2932, 10091, 10092, 10093, 9702
1886, 3023, 655, 3024, 3025, 10095, 10096, 10097, 10092
1887, 3025, 3024, 776, 2973, 10097, 10099, 9885, 10100
1888, 2932, 3025, 2973, 850, 10093, 10100, 9882, 9705
1889, 684, 3026, 3027, 2489, 10103, 10104, 10105, 7903
1890, 3026, 551, 2635, 3027, 10107, 8492, 10108, 10104
1891, 3027, 2635, 642, 3009, 10108, 8501, 10037, 10110
1892, 2489, 3027, 3009, 759, 10105, 10110, 10033, 7893
1893, 607, 2940, 3029, 2133, 9747, 10113, 10114, 6571
1894, 2940, 145, 146, 3029, 9744, 225, 10116, 10113
1895, 3029, 146, 147, 3028, 10116, 226, 10118, 10119
1896, 2133, 3029, 3028, 679, 10114, 10119, 10121, 6574
1897, 601, 3030, 3032, 2363, 10123, 10124, 10125, 7433
1898, 3030, 26, 27, 3032, 10127, 66, 10128, 10124
1899, 3032, 27, 28, 3031, 10128, 67, 10130, 10131
1900, 2363, 3032, 3031, 545, 10125, 10131, 10133, 7438
1901, 1257, 3033, 3036, 3035, 10135, 10136, 10137, 10138
1902, 3033, 1207, 3034, 3036, 10140, 10141, 10142, 10136
1903, 3036, 3034, 1268, 2733, 10142, 10144, 8901, 10145
1904, 3035, 3036, 2733, 1287, 10137, 10145, 8898, 10147
1905, 1135, 3037, 3038, 2918, 10149, 10150, 10151, 9643
1906, 3037, 1176, 2906, 3038, 10153, 9593, 10154, 10150
1907, 3038, 2906, 1115, 2195, 10154, 9590, 6789, 10156
1908, 2918, 3038, 2195, 1067, 10151, 10156, 6785, 9637
1909, 1187, 2821, 3040, 1771, 9259, 10159, 10160, 5306
1910, 2821, 1132, 2162, 3040, 9255, 6671, 10162, 10159
1911, 3040, 2162, 1183, 3039, 10162, 6668, 10164, 10165
1912, 1771, 3040, 3039, 1220, 10160, 10165, 10167, 5309
1913, 989, 2673, 3043, 3042, 8657, 10169, 10170, 10171
1914, 2673, 795, 2894, 3043, 8653, 9541, 10173, 10169
1915, 3043, 2894, 939, 3041, 10173, 9538, 10175, 10176
1916, 3042, 3043, 3041, 950, 10170, 10176, 10178, 10179
1917, 875, 3044, 3045, 1511, 10181, 10182, 10183, 4435
1918, 3044, 993, 1899, 3045, 10185, 5756, 10186, 10182
1919, 3045, 1899, 1131, 2663, 10186, 5753, 8611, 10188
1920, 1511, 3045, 2663, 1030, 10183, 10188, 8608, 4424
1921, 859, 2853, 3049, 3048, 9382, 10191, 10192, 10193
1922, 2853, 845, 3046, 3049, 9379, 10195, 10196, 10191
1923, 3049, 3046, 774, 3047, 10196, 10198, 10199, 10200
1924, 3048, 3049, 3047, 781, 10192, 10200, 10202, 10203
1925, 935, 3011, 3051, 2852, 10052, 10205, 10206, 9375
1926, 3011, 1006, 2526, 3051, 10049, 8041, 10208, 10205
1927, 3051, 2526, 898, 3050, 10208, 8038, 10210, 10211
1928, 2852, 3051, 3050, 845, 10206, 10211, 10213, 9378
1929, 603, 3052, 3054, 2453, 10215, 10216, 10217, 7771
1930, 3052, 266, 267, 3054, 10219, 306, 10220, 10216
1931, 3054, 267, 268, 3053, 10220, 307, 10222, 10223
1932, 2453, 3054, 3053, 546, 10217, 10223, 10225, 7761
1933, 1106, 2872, 3057, 3056, 9445, 10227, 10228, 10229
1934, 2872, 1038, 2996, 3057, 9441, 9979, 10231, 10227
1935, 3057, 2996, 1112, 3055, 10231, 9985, 10233, 10234
1936, 3056, 3057, 3055, 1173, 10228, 10234, 10236, 10237
1937, 1188, 2700, 3060, 3059, 8769, 10239, 10240, 10241
1938, 2700, 1031, 3058, 3060, 8766, 10243, 10244, 10239
1939, 3060, 3058, 1108, 1765, 10244, 10246, 5290, 10247
1940, 3059, 3060, 1765, 1156, 10240, 10247, 5287, 10249
1941, 916, 2962, 3063, 3062, 9840, 10251, 10252, 10253
1942, 2962, 1007, 2541, 3063, 9837, 8102, 10255, 10251
1943, 3063, 2541, 938, 3061, 10255, 8099, 10257, 10258
1944, 3062, 3063, 3061, 821, 10252, 10258, 10260, 10261
1945, 1213, 2173, 3065, 2949, 6713, 10263, 10264, 9789
1946, 2173, 1268, 3034, 3065, 6710, 10144, 10266, 10263
1947, 3065, 3034, 1207, 3064, 10266, 10141, 10268, 10269
1948, 2949, 3065, 3064, 1186, 10264, 10269, 10271, 9782
1949, 899, 2983, 3068, 3067, 9930, 10273, 10274, 10275
1950, 2983, 961, 2994, 3068, 9927, 9973, 10277, 10273
1951, 3068, 2994, 900, 3066, 10277, 9970, 10279, 10280
1952, 3067, 3068, 3066, 861, 10274, 10280, 10282, 10283
1953, 922, 1918, 3070, 2291, 5822, 10285, 10286, 7162
1954, 1918, 1066, 3069, 3070, 5817, 10288, 10289, 10285
1955, 3070, 3069, 985, 2315, 10289, 10291, 7253, 10292
1956, 2291, 3070, 2315, 835, 10286, 10292, 7250, 7165
1957, 678, 2986, 3072, 2509, 9941, 10295, 10296, 7971
1958, 2986, 385, 386, 3072, 9938, 465, 10298, 10295
1959, 3072, 386, 387, 3071, 10298, 466, 10300, 10301
1960, 2509, 3072, 3071, 555, 10296, 10301, 10303, 7976
1961, 613, 2399, 3074, 3073, 7559, 10305, 10306, 10307
1962, 2399, 555, 3071, 3074, 7567, 10303, 10309, 10305
1963, 3074, 3071, 387, 388, 10309, 10300, 467, 10311
1964, 3073, 3074, 388, 389, 10306, 10311, 468, 10313
1965, 855, 2953, 3075, 2717, 9806, 10315, 10316, 8839
1966, 2953, 774, 3046, 3075, 9801, 10198, 10318, 10315
1967, 3075, 3046, 845, 3050, 10318, 10195, 10213, 10320
1968, 2717, 3075, 3050, 898, 10316, 10320, 10210, 8829
1969, 935, 2851, 3077, 3012, 9374, 10323, 10324, 10053
1970, 2851, 941, 3076, 3077, 9369, 10326, 10327, 10323
1971, 3077, 3076, 844, 2294, 10327, 10329, 7178, 10330
1972, 3012, 3077, 2294, 1002, 10324, 10330, 7175, 10045
1973, 764, 2393, 3078, 2299, 7546, 10333, 10334, 7193
1974, 2393, 735, 2498, 3078, 7541, 7938, 10336, 10333
1975, 3078, 2498, 918, 2916, 10336, 7935, 9629, 10338
1976, 2299, 3078, 2916, 817, 10334, 10338, 9625, 7183
1977, 949, 1779, 3080, 3079, 5338, 10341, 10342, 10343
1978, 1779, 796, 2875, 3080, 5335, 9461, 10345, 10341
1979, 3080, 2875, 940, 2255, 10345, 9458, 7020, 10347
1980, 3079, 3080, 2255, 1060, 10342, 10347, 7017, 10349
1981, 770, 3003, 3083, 3082, 10013, 10351, 10352, 10353
1982, 3003, 820, 2923, 3083, 10009, 9659, 10355, 10351
1983, 3083, 2923, 775, 3081, 10355, 9665, 10357, 10358
1984, 3082, 3083, 3081, 656, 10352, 10358, 10360, 10361
1985, 684, 3084, 3085, 3026, 10363, 10364, 10365, 10103
1986, 3084, 341, 342, 3085, 10367, 421, 10368, 10364
1987, 3085, 342, 343, 2934, 10368, 422, 9713, 10370
1988, 3026, 3085, 2934, 551, 10365, 10370, 9709, 10107
1989, 724, 2903, 3088, 3087, 9579, 10373, 10374, 10375
1990, 2903, 1004, 2984, 3088, 9575, 9923, 10377, 10373
1991, 3088, 2984, 899, 3086, 10377, 9931, 10379, 10380
1992, 3087, 3088, 3086, 858, 10374, 10380, 10382, 10383
1993, 854, 2989, 3090, 2730, 9956, 10385, 10386, 8889
1994, 2989, 778, 3089, 3090, 9951, 10388, 10389, 10385
1995, 3090, 3089, 849, 3014, 10389, 10391, 10063, 10392
1996, 2730, 3090, 3014, 912, 10386, 10392, 10060, 8878
1997, 679, 3028, 3092, 2529, 10121, 10395, 10396, 8053
1998, 3028, 147, 148, 3092, 10118, 227, 10398, 10395
1999, 3092, 148, 149, 3091, 10398, 228, 10400, 10401
2000, 2529, 3092, 3091, 552, 10396, 10401, 10403, 8057
2001, 1160, 2794, 3094, 3093, 9145, 10405, 10406, 10407
2002, 2794, 1097, 2978, 3094, 9141, 9901, 10409, 10405
2003, 3094, 2978, 1186, 3064, 10409, 9907, 10271, 10411
2004, 3093, 3094, 3064, 1207, 10406, 10411, 10268, 10413
2005, 1175, 2139, 3097, 3096, 6593, 10415, 10416, 10417
2006, 2139, 1124, 3095, 3097, 6589, 10419, 10420, 10415
2007, 3097, 3095, 1024, 2909, 10420, 10422, 9606, 10423
2008, 3096, 3097, 2909, 1153, 10416, 10423, 9603, 10425
2009, 638, 2373, 3098, 2070, 7474, 10427, 10428, 6355
2010, 2373, 681, 2532, 3098, 7471, 8072, 10430, 10427
2011, 3098, 2532, 838, 2595, 10430, 8069, 8332, 10432
2012, 2070, 3098, 2595, 719, 10428, 10432, 8329, 6358
2013, 890, 2158, 3100, 2959, 6660, 10435, 10436, 9825
2014, 2158, 723, 3099, 3100, 6657, 10438, 10439, 10435
2015, 3100, 3099, 856, 2476, 10439, 10441, 7858, 10442
2016, 2959, 3100, 2476, 1005, 10436, 10442, 7855, 9828
2017, 685, 3101, 3104, 3103, 10445, 10446, 10447, 10448
2018, 3101, 103, 104, 3104, 10450, 183, 10451, 10446
2019, 3104, 104, 105, 3102, 10451, 184, 10453, 10454
2020, 3103, 3104, 3102, 549, 10447, 10454, 10456, 10457
2021, 609, 2920, 3105, 2819, 9650, 10459, 10460, 9245
2022, 2920, 549, 3102, 3105, 9645, 10456, 10462, 10459
2023, 3105, 3102, 105, 106, 10462, 10453, 185, 10464
2024, 2819, 3105, 106, 107, 10460, 10464, 186, 9249
2025, 968, 2049, 3106, 1971, 6268, 10467, 10468, 5997
2026, 2049, 987, 2304, 3106, 6279, 7212, 10470, 10467
2027, 3106, 2304, 1140, 2102, 10470, 7207, 6452, 10472
2028, 1971, 3106, 2102, 1026, 10468, 10472, 6463, 5986
2029, 923, 1809, 3108, 3107, 5444, 10475, 10476, 10477
2030, 1809, 982, 2584, 3108, 5441, 8283, 10479, 10475
2031, 3108, 2584, 927, 2390, 10479, 8280, 7538, 10481
2032, 3107, 3108, 2390, 829, 10476, 10481, 7535, 10483
2033, 778, 3109, 3111, 3089, 10485, 10486, 10487, 10388
2034, 3109, 779, 3110, 3111, 10489, 10490, 10491, 10486
2035, 3111, 3110, 857, 2763, 10491, 10493, 9034, 10494
2036, 3089, 3111, 2763, 849, 10487, 10494, 9031, 10391
2037, 1173, 3112, 3115, 3056, 10497, 10498, 10499, 10237
2038, 3112, 1208, 3113, 3115, 10501, 10502, 10503, 10498
2039, 3115, 3113, 1159, 3114, 10503, 10505, 10506, 10507
2040, 3056, 3115, 3114, 1106, 10499, 10507, 10509, 10229
2041, 691, 3116, 3117, 2622, 10511, 10512, 10513, 8445
2042, 3116, 573, 2954, 3117, 10515, 9810, 10516, 10512
2043, 3117, 2954, 855, 2716, 10516, 9807, 8838, 10518
2044, 2622, 3117, 2716, 736, 10513, 10518, 8835, 8434
2045, 545, 3031, 3119, 2109, 10133, 10521, 10522, 6485
2046, 3031, 28, 29, 3119, 10130, 68, 10524, 10521
2047, 3119, 29, 30, 3118, 10524, 69, 10526, 10527
2048, 2109, 3119, 3118, 682, 10522, 10527, 10529, 6488
2049, 610, 3120, 3121, 2754, 10531, 10532, 10533, 8989
2050, 3120, 264, 265, 3121, 10535, 304, 10536, 10532
2051, 3121, 265, 266, 3052, 10536, 305, 10219, 10538
2052, 2754, 3121, 3052, 603, 10533, 10538, 10215, 8994
2053, 831, 2242, 3122, 2724, 6970, 10541, 10542, 8866
2054, 2242, 1059, 2865, 3122, 6967, 9424, 10544, 10541
2055, 3122, 2865, 950, 3041, 10544, 9421, 10178, 10546
2056, 2724, 3122, 3041, 939, 10542, 10546, 10175, 8869
2057, 1222, 3123, 3125, 1557, 10549, 10550, 10551, 4582
2058, 3123, 1129, 3124, 3125, 10553, 10554, 10555, 10550
2059, 3125, 3124, 1029, 2359, 10555, 10557, 7426, 10558
2060, 1557, 3125, 2359, 1172, 10551, 10558, 7423, 4585
2061, 686, 3126, 3127, 2406, 10561, 10562, 10563, 7590
2062, 3126, 24, 25, 3127, 10565, 64, 10566, 10562
2063, 3127, 25, 26, 3030, 10566, 65, 10127, 10568
2064, 2406, 3127, 3030, 601, 10563, 10568, 10123, 7593
2065, 781, 3128, 3131, 3048, 10571, 10572, 10573, 10203
2066, 3128, 659, 3129, 3131, 10575, 10576, 10577, 10572
2067, 3131, 3129, 784, 3130, 10577, 10579, 10580, 10581
2068, 3048, 3131, 3130, 859, 10573, 10581, 10583, 10193
2069, 688, 3132, 3133, 2807, 10585, 10586, 10587, 9199
2070, 3132, 610, 2755, 3133, 10589, 8992, 10590, 10586
2071, 3133, 2755, 680, 2740, 10590, 8999, 8932, 10592
2072, 2807, 3133, 2740, 763, 10587, 10592, 8929, 9188
2073, 546, 3053, 3135, 2143, 10225, 10595, 10596, 6607
2074, 3053, 268, 269, 3135, 10222, 308, 10598, 10595
2075, 3135, 269, 270, 3134, 10598, 309, 10600, 10601
2076, 2143, 3135, 3134, 683, 10596, 10601, 10603, 6610
2077, 612, 3136, 3138, 2845, 10605, 10606, 10607, 9344
2078, 3136, 565, 2805, 3138, 10609, 9194, 10610, 10606
2079, 3138, 2805, 646, 3137, 10610, 9191, 10612, 10613
2080, 2845, 3138, 3137, 771, 10607, 10613, 10615, 9347
2081, 690, 3139, 3140, 2592, 10617, 10618, 10619, 8319
2082, 3139, 575, 3019, 3140, 10621, 10084, 10622, 10618
2083, 3140, 3019, 856, 3099, 10622, 10081, 10441, 10624
2084, 2592, 3140, 3099, 723, 10619, 10624, 10438, 8309
2085, 965, 3141, 3142, 1674, 10627, 10628, 10629, 4975
2086, 3141, 1072, 1877, 3142, 10631, 5682, 10632, 10628
2087, 3142, 1877, 1181, 2772, 10632, 5679, 9064, 10634
2088, 1674, 3142, 2772, 1110, 10629, 10634, 9061, 4978
2089, 937, 2788, 3143, 2847, 9124, 10637, 10638, 9354
2090, 2788, 802, 2378, 3143, 9121, 7489, 10640, 10637
2091, 3143, 2378, 771, 3137, 10640, 7486, 10615, 10642
2092, 2847, 3143, 3137, 646, 10638, 10642, 10612, 9357
2093, 779, 3109, 3146, 3145, 10489, 10645, 10646, 10647
2094, 3109, 778, 2992, 3146, 10485, 9954, 10649, 10645
2095, 3146, 2992, 697, 3144, 10649, 9965, 10651, 10652
2096, 3145, 3146, 3144, 624, 10646, 10652, 10654, 10655
2097, 689, 3147, 3148, 2561, 10657, 10658, 10659, 8179
2098, 3147, 566, 2990, 3148, 10661, 9960, 10662, 10658
2099, 3148, 2990, 854, 2729, 10662, 9957, 8888, 10664
2100, 2561, 3148, 2729, 717, 10659, 10664, 8885, 8168
2101, 693, 3016, 3151, 3150, 10074, 10667, 10668, 10669
2102, 3016, 725, 3001, 3151, 10071, 9999, 10671, 10667
2103, 3151, 3001, 860, 3149, 10671, 10007, 10673, 10674
2104, 3150, 3151, 3149, 574, 10668, 10674, 10676, 10677
2105, 604, 3152, 3153, 2488, 10679, 10680, 10681, 7899
2106, 3152, 339, 340, 3153, 10683, 419, 10684, 10680
2107, 3153, 340, 341, 3084, 10684, 420, 10367, 10686
2108, 2488, 3153, 3084, 684, 10681, 10686, 10363, 7902
2109, 905, 1553, 3155, 2313, 4574, 10689, 10690, 7240
2110, 1553, 837, 3154, 3155, 4571, 10692, 10693, 10689
2111, 3155, 3154, 747, 2685, 10693, 10695, 8701, 10696
2112, 2313, 3155, 2685, 805, 10690, 10696, 8698, 7243
2113, 860, 3000, 3158, 3157, 10006, 10699, 10700, 10701
2114, 3000, 916, 3062, 3158, 10003, 10253, 10703, 10699
2115, 3158, 3062, 821, 3156, 10703, 10261, 10705, 10706
2116, 3157, 3158, 3156, 782, 10700, 10706, 10708, 10709
2117, 611, 2641, 3161, 3160, 8519, 10711, 10712, 10713
2118, 2641, 606, 3159, 3161, 8525, 10715, 10716, 10711
2119, 3161, 3159, 151, 152, 10716, 10718, 231, 10719
2120, 3160, 3161, 152, 153, 10712, 10719, 232, 10721
2121, 552, 3091, 3162, 2371, 10403, 10723, 10724, 7461
2122, 3091, 149, 150, 3162, 10400, 229, 10726, 10723
2123, 3162, 150, 151, 3159, 10726, 230, 10718, 10728
2124, 2371, 3162, 3159, 606, 10724, 10728, 10715, 7466
2125, 1328, 2117, 3164, 1524, 6514, 10731, 10732, 4475
2126, 2117, 1322, 3163, 3164, 6509, 10734, 10735, 10731
2127, 3164, 3163, 1283, 2616, 10735, 10737, 8421, 10738
2128, 1524, 3164, 2616, 1289, 10732, 10738, 8418, 4478
2129, 1101, 1592, 3166, 2074, 4688, 10741, 10742, 6367
2130, 1592, 1275, 3165, 3166, 4699, 10744, 10745, 10741
2131, 3166, 3165, 1209, 2419, 10745, 10747, 7639, 10748
2132, 2074, 3166, 2419, 1180, 10742, 10748, 7635, 6370
2133, 1033, 2140, 3167, 2021, 6599, 10751, 10752, 6177
2134, 2140, 1228, 1872, 3167, 6596, 5661, 10754, 10751
2135, 3167, 1872, 1176, 3037, 10754, 5658, 10153, 10756
2136, 2021, 3167, 3037, 1135, 10752, 10756, 10149, 6180
2137, 1165, 2537, 3168, 1678, 8090, 10759, 10760, 4987
2138, 2537, 1109, 2521, 3168, 8087, 8026, 10762, 10759
2139, 3168, 2521, 1265, 2836, 10762, 8023, 9317, 10764
2140, 1678, 3168, 2836, 1210, 10760, 10764, 9314, 4990
2141, 608, 3169, 3170, 2424, 10767, 10768, 10769, 7657
2142, 3169, 101, 102, 3170, 10771, 181, 10772, 10768
2143, 3170, 102, 103, 3101, 10772, 182, 10450, 10774
2144, 2424, 3170, 3101, 685, 10769, 10774, 10445, 7660
2145, 1262, 3171, 3174, 3173, 10777, 10778, 10779, 10780
2146, 3171, 1284, 2428, 3174, 10782, 7672, 10783, 10778
2147, 3174, 2428, 1312, 3172, 10783, 7669, 10785, 10786
2148, 3173, 3174, 3172, 1290, 10779, 10786, 10788, 10789
2149, 1129, 3123, 3176, 1803, 10553, 10791, 10792, 5421
2150, 3123, 1222, 3175, 3176, 10549, 10794, 10795, 10791
2151, 3176, 3175, 1173, 3055, 10795, 10797, 10236, 10798
2152, 1803, 3176, 3055, 1112, 10792, 10798, 10233, 5410
2153, 767, 2619, 3177, 2534, 8436, 10801, 10802, 8077
2154, 2619, 736, 2715, 3177, 8431, 8834, 10804, 10801
2155, 3177, 2715, 926, 2467, 10804, 8831, 7824, 10806
2156, 2534, 3177, 2467, 819, 10802, 10806, 7821, 8066
2157, 780, 2840, 3180, 3179, 9332, 10809, 10810, 10811
2158, 2840, 776, 3024, 3180, 9329, 10099, 10813, 10809
2159, 3180, 3024, 655, 3178, 10813, 10096, 10815, 10816
2160, 3179, 3180, 3178, 698, 10810, 10816, 10818, 10819
2161, 941, 2854, 3183, 3182, 9372, 10821, 10822, 10823
2162, 2854, 859, 3130, 3183, 9383, 10583, 10825, 10821
2163, 3183, 3130, 784, 3181, 10825, 10580, 10827, 10828
2164, 3182, 3183, 3181, 658, 10822, 10828, 10830, 10831
2165, 780, 3184, 3186, 2841, 10833, 10834, 10835, 9333
2166, 3184, 657, 3185, 3186, 10837, 10838, 10839, 10834
2167, 3186, 3185, 656, 3081, 10839, 10841, 10360, 10842
2168, 2841, 3186, 3081, 775, 10835, 10842, 10357, 9322
2169, 1251, 1499, 3190, 3189, 4396, 10845, 10846, 10847
2170, 1499, 1295, 3187, 3190, 4391, 10849, 10850, 10845
2171, 3190, 3187, 1272, 3188, 10850, 10852, 10853, 10854
2172, 3189, 3190, 3188, 1208, 10846, 10854, 10856, 10857
2173, 1100, 3191, 3192, 2264, 10859, 10860, 10861, 7048
2174, 3191, 1179, 1680, 3192, 10863, 4984, 10864, 10860
2175, 3192, 1680, 1266, 1841, 10864, 4995, 5552, 10866
2176, 2264, 3192, 1841, 1205, 10861, 10866, 5549, 7051
2177, 861, 3193, 3195, 3067, 10869, 10870, 10871, 10283
2178, 3193, 787, 3194, 3195, 10873, 10874, 10875, 10870
2179, 3195, 3194, 858, 3086, 10875, 10877, 10382, 10878
2180, 3067, 3195, 3086, 899, 10871, 10878, 10379, 10275
2181, 688, 3196, 3197, 3132, 10881, 10882, 10883, 10585
2182, 3196, 262, 263, 3197, 10885, 302, 10886, 10882
2183, 3197, 263, 264, 3120, 10886, 303, 10535, 10888
2184, 3132, 3197, 3120, 610, 10883, 10888, 10531, 10589
2185, 692, 2878, 3200, 3199, 9480, 10891, 10892, 10893
2186, 2878, 853, 2904, 3200, 9477, 9583, 10895, 10891
2187, 3200, 2904, 724, 3198, 10895, 9580, 10897, 10898
2188, 3199, 3200, 3198, 585, 10892, 10898, 10900, 10901
2189, 821, 3061, 3203, 3202, 10260, 10903, 10904, 10905
2190, 3061, 938, 2764, 3203, 10257, 9025, 10907, 10903
2191, 3203, 2764, 857, 3201, 10907, 9035, 10909, 10910
2192, 3202, 3203, 3201, 783, 10904, 10910, 10912, 10913
2193, 694, 3204, 3206, 2680, 10915, 10916, 10917, 8681
2194, 3204, 580, 3205, 3206, 10919, 10920, 10921, 10916
2195, 3206, 3205, 655, 3023, 10921, 10923, 10095, 10924
2196, 2680, 3206, 3023, 773, 10917, 10924, 10091, 8670
2197, 1315, 1693, 3208, 2746, 5044, 10927, 10928, 8958
2198, 1693, 1285, 2019, 3208, 5041, 6171, 10930, 10927
2199, 3208, 2019, 1206, 3207, 10930, 6168, 10932, 10933
2200, 2746, 3208, 3207, 1252, 10928, 10933, 10935, 8961
2201, 782, 3156, 3211, 3210, 10708, 10937, 10938, 10939
2202, 3156, 821, 3202, 3211, 10705, 10905, 10941, 10937
2203, 3211, 3202, 783, 3209, 10941, 10913, 10943, 10944
2204, 3210, 3211, 3209, 786, 10938, 10944, 10946, 10947
2205, 682, 3118, 3213, 2951, 10529, 10949, 10950, 9791
2206, 3118, 30, 31, 3213, 10526, 70, 10952, 10949
2207, 3213, 31, 32, 3212, 10952, 71, 10954, 10955
2208, 2951, 3213, 3212, 600, 10950, 10955, 10957, 9795
2209, 841, 2558, 3214, 2084, 8170, 10959, 10960, 6401
2210, 2558, 717, 2728, 3214, 8165, 8884, 10962, 10959
2211, 3214, 2728, 998, 2815, 10962, 8881, 9234, 10964
2212, 2084, 3214, 2815, 911, 10960, 10964, 9231, 6404
2213, 564, 3215, 3216, 2752, 10967, 10968, 10969, 8984
2214, 3215, 22, 23, 3216, 10971, 62, 10972, 10968
2215, 3216, 23, 24, 3126, 10972, 63, 10565, 10974
2216, 2752, 3216, 3126, 686, 10969, 10974, 10561, 8987
2217, 1156, 2516, 3217, 3059, 8005, 10977, 10978, 10249
2218, 2516, 1212, 2868, 3217, 8002, 9434, 10980, 10977
2219, 3217, 2868, 1259, 1721, 10980, 9431, 5137, 10982
2220, 3059, 3217, 1721, 1188, 10978, 10982, 5134, 10241
2221, 826, 2014, 3219, 2122, 6152, 10985, 10986, 6533
2222, 2014, 729, 2330, 3219, 6147, 7314, 10988, 10985
2223, 3219, 2330, 814, 3218, 10988, 7311, 10990, 10991
2224, 2122, 3219, 3218, 929, 10986, 10991, 10993, 6523
2225, 1052, 2965, 3221, 2409, 9851, 10995, 10996, 7601
2226, 2965, 907, 3220, 3221, 9848, 10998, 10999, 10995
2227, 3221, 3220, 978, 2033, 10999, 11001, 6223, 11002
2228, 2409, 3221, 2033, 1134, 10996, 11002, 6220, 7604
2229, 737, 2376, 3223, 3222, 7481, 11005, 11006, 11007
2230, 2376, 844, 3076, 3223, 7477, 10329, 11009, 11005
2231, 3223, 3076, 941, 3182, 11009, 10326, 10823, 11011
2232, 3222, 3223, 3182, 658, 11006, 11011, 10831, 11013
2233, 751, 2002, 3224, 2175, 6108, 11015, 11016, 6719
2234, 2002, 923, 3107, 3224, 6105, 10477, 11018, 11015
2235, 3224, 3107, 829, 2513, 11018, 10483, 7991, 11020
2236, 2175, 3224, 2513, 673, 11016, 11020, 7988, 6722
2237, 683, 3134, 3226, 2936, 10603, 11023, 11024, 9719
2238, 3134, 270, 271, 3226, 10600, 310, 11026, 11023
2239, 3226, 271, 272, 3225, 11026, 311, 11028, 11029
2240, 2936, 3226, 3225, 602, 11024, 11029, 11031, 9723
2241, 783, 3201, 3229, 3228, 10912, 11033, 11034, 11035
2242, 3201, 857, 3110, 3229, 10909, 10493, 11037, 11033
2243, 3229, 3110, 779, 3227, 11037, 10490, 11039, 11040
2244, 3228, 3229, 3227, 660, 11034, 11040, 11042, 11043
2245, 1174, 2496, 3230, 1767, 7920, 11045, 11046, 5295
2246, 2496, 1103, 2665, 3230, 7929, 8621, 11048, 11045
2247, 3230, 2665, 1270, 1884, 11048, 8618, 5692, 11050
2248, 1767, 3230, 1884, 1221, 11046, 11050, 5703, 5284
2249, 692, 3231, 3232, 2879, 11053, 11054, 11055, 9481
2250, 3231, 337, 338, 3232, 11057, 417, 11058, 11054
2251, 3232, 338, 339, 3152, 11058, 418, 10683, 11060
2252, 2879, 3232, 3152, 604, 11055, 11060, 10679, 9473
2253, 613, 3073, 3234, 2395, 10307, 11063, 11064, 7551
2254, 3073, 389, 390, 3234, 10313, 469, 11066, 11063
2255, 3234, 390, 391, 3233, 11066, 470, 11068, 11069
2256, 2395, 3234, 3233, 687, 11064, 11069, 11071, 7554
2257, 693, 3235, 3236, 3017, 11073, 11074, 11075, 10075
2258, 3235, 99, 100, 3236, 11077, 179, 11078, 11074
2259, 3236, 100, 101, 3169, 11078, 180, 10771, 11080
2260, 3017, 3236, 3169, 608, 11075, 11080, 10767, 10067
2261, 565, 3237, 3238, 2806, 11083, 11084, 11085, 9195
2262, 3237, 260, 261, 3238, 11087, 300, 11088, 11084
2263, 3238, 261, 262, 3196, 11088, 301, 10885, 11090
2264, 2806, 3238, 3196, 688, 11085, 11090, 10881, 9198
2265, 785, 3239, 3241, 3240, 11093, 11094, 11095, 11096
2266, 3239, 861, 3066, 3241, 11098, 10282, 11099, 11094
2267, 3241, 3066, 900, 2478, 11099, 10279, 7852, 11101
2268, 3240, 3241, 2478, 777, 11095, 11101, 7863, 11103
2269, 658, 3242, 3244, 3222, 11105, 11106, 11107, 11013
2270, 3242, 576, 3243, 3244, 11109, 11110, 11111, 11106
2271, 3244, 3243, 695, 2843, 11111, 11113, 9339, 11114
2272, 3222, 3244, 2843, 737, 11107, 11114, 9335, 11007
2273, 1269, 1663, 3245, 1375, 4937, 11117, 11118, 3993
2274, 1663, 1226, 2970, 3245, 4934, 9874, 11120, 11117
2275, 3245, 2970, 1096, 2100, 11120, 9871, 6458, 11122
2276, 1375, 3245, 2100, 1162, 11118, 11122, 6455, 3996
2277, 657, 3184, 3248, 3247, 10837, 11125, 11126, 11127
2278, 3184, 780, 3179, 3248, 10833, 10811, 11129, 11125
2279, 3248, 3179, 698, 3246, 11129, 10819, 11131, 11132
2280, 3247, 3248, 3246, 699, 11126, 11132, 11134, 11135
2281, 782, 3249, 3251, 3157, 11137, 11138, 11139, 10709
2282, 3249, 702, 3250, 3251, 11141, 11142, 11143, 11138
2283, 3251, 3250, 574, 3149, 11143, 11145, 10676, 11146
2284, 3157, 3251, 3149, 860, 11139, 11146, 10673, 10701
2285, 1298, 3252, 3254, 2154, 11149, 11150, 11151, 6642
2286, 3252, 1232, 3253, 3254, 11153, 11154, 11155, 11150
2287, 3254, 3253, 1177, 1476, 11155, 11157, 4322, 11158
2288, 2154, 3254, 1476, 1249, 11151, 11158, 4319, 6645
2289, 944, 3255, 3257, 1965, 11161, 11162, 11163, 5977
2290, 3255, 1085, 3256, 3257, 11165, 11166, 11167, 11162
2291, 3257, 3256, 984, 1787, 11167, 11169, 5364, 11170
2292, 1965, 3257, 1787, 884, 11163, 11170, 5361, 5980
2293, 781, 3047, 3260, 3259, 10202, 11173, 11174, 11175
2294, 3047, 774, 2956, 3260, 10199, 9804, 11177, 11173
2295, 3260, 2956, 701, 3258, 11177, 9815, 11179, 11180
2296, 3259, 3260, 3258, 579, 11174, 11180, 11182, 11183
2297, 600, 3212, 3262, 2560, 10957, 11185, 11186, 8175
2298, 3212, 32, 33, 3262, 10954, 72, 11188, 11185
2299, 3262, 33, 34, 3261, 11188, 73, 11190, 11191
2300, 2560, 3262, 3261, 689, 11186, 11191, 11193, 8178
2301, 1316, 2869, 3264, 1443, 9438, 11195, 11196, 4211
2302, 2869, 1212, 2515, 3264, 9435, 8001, 11198, 11195
2303, 3264, 2515, 1245, 3263, 11198, 7998, 11200, 11201
2304, 1443, 3264, 3263, 1281, 11196, 11201, 11203, 4214
2305, 770, 3082, 3268, 3267, 10353, 11205, 11206, 11207
2306, 3082, 656, 3265, 3268, 10361, 11209, 11210, 11205
2307, 3268, 3265, 581, 3266, 11210, 11212, 11213, 11214
2308, 3267, 3268, 3266, 696, 11206, 11214, 11216, 11217
2309, 1185, 2968, 3269, 2507, 9866, 11219, 11220, 7969
2310, 2968, 1202, 2626, 3269, 9861, 8463, 11222, 11219
2311, 3269, 2626, 1263, 2492, 11222, 8460, 7915, 11224
2312, 2507, 3269, 2492, 1166, 11220, 11224, 7912, 7958
2313, 648, 1620, 3271, 2193, 4794, 11227, 11228, 6780
2314, 1620, 903, 3270, 3271, 4789, 11230, 11231, 11227
2315, 3271, 3270, 815, 1654, 11231, 11233, 4908, 11234
2316, 2193, 3271, 1654, 745, 11228, 11234, 4905, 6783
2317, 660, 3272, 3274, 3228, 11237, 11238, 11239, 11043
2318, 3272, 700, 3273, 3274, 11241, 11242, 11243, 11238
2319, 3274, 3273, 786, 3209, 11243, 11245, 10946, 11246
2320, 3228, 3274, 3209, 783, 11239, 11246, 10943, 11035
2321, 836, 1551, 3275, 2660, 4566, 11249, 11250, 8596
2322, 1551, 978, 3220, 3275, 4561, 11001, 11252, 11249
2323, 3275, 3220, 907, 2564, 11252, 10998, 8193, 11254
2324, 2660, 3275, 2564, 733, 11250, 11254, 8189, 8599
2325, 602, 3225, 3277, 2591, 11031, 11257, 11258, 8315
2326, 3225, 272, 273, 3277, 11028, 312, 11260, 11257
2327, 3277, 273, 274, 3276, 11260, 313, 11262, 11263
2328, 2591, 3277, 3276, 690, 11258, 11263, 11265, 8318
2329, 611, 3160, 3279, 2621, 10713, 11267, 11268, 8441
2330, 3160, 153, 154, 3279, 10721, 233, 11270, 11267
2331, 3279, 154, 155, 3278, 11270, 234, 11272, 11273
2332, 2621, 3279, 3278, 691, 11268, 11273, 11275, 8444
2333, 828, 2071, 3280, 1811, 6349, 11277, 11278, 5449
2334, 2071, 719, 2594, 3280, 6359, 8328, 11280, 11277
2335, 3280, 2594, 993, 3044, 11280, 8325, 10185, 11282
2336, 1811, 3280, 3044, 875, 11278, 11282, 10181, 5439
2337, 696, 3281, 3282, 3267, 11285, 11286, 11287, 11217
2338, 3281, 619, 3006, 3282, 11289, 10030, 11290, 11286
2339, 3282, 3006, 645, 3004, 11290, 10027, 10017, 11292
2340, 3267, 3282, 3004, 770, 11287, 11292, 10014, 11207
2341, 580, 3283, 3285, 3205, 11295, 11296, 11297, 10920
2342, 3283, 614, 3284, 3285, 11299, 11300, 11301, 11296
2343, 3285, 3284, 698, 3178, 11301, 11303, 10818, 11304
2344, 3205, 3285, 3178, 655, 11297, 11304, 10815, 10923
2345, 1037, 2682, 3286, 2536, 8687, 11307, 11308, 8083
2346, 2682, 1073, 2125, 3286, 8683, 6544, 11310, 11307
2347, 3286, 2125, 1184, 2522, 11310, 6541, 8030, 11312
2348, 2536, 3286, 2522, 1109, 11308, 11312, 8027, 8086
2349, 724, 3087, 3289, 3198, 10375, 11315, 11316, 10897
2350, 3087, 858, 3287, 3289, 10383, 11318, 11319, 11315
2351, 3289, 3287, 706, 3288, 11319, 11321, 11322, 11323
2352, 3198, 3289, 3288, 585, 11316, 11323, 11325, 10900
2353, 784, 3290, 3292, 3181, 11327, 11328, 11329, 10827
2354, 3290, 615, 3291, 3292, 11331, 11332, 11333, 11328
2355, 3292, 3291, 576, 3242, 11333, 11335, 11109, 11336
2356, 3181, 3292, 3242, 658, 11329, 11336, 11105, 10830
2357, 574, 3293, 3294, 3150, 11339, 11340, 11341, 10677
2358, 3293, 97, 98, 3294, 11343, 177, 11344, 11340
2359, 3294, 98, 99, 3235, 11344, 178, 11077, 11346
2360, 3150, 3294, 3235, 693, 11341, 11346, 11073, 10669
2361, 612, 3295, 3296, 3136, 11349, 11350, 11351, 10605
2362, 3295, 258, 259, 3296, 11353, 298, 11354, 11350
2363, 3296, 259, 260, 3237, 11354, 299, 11087, 11356
2364, 3136, 3296, 3237, 565, 11351, 11356, 11083, 10609
2365, 687, 3233, 3298, 2930, 11071, 11359, 11360, 9689
2366, 3233, 391, 392, 3298, 11068, 471, 11362, 11359
2367, 3298, 392, 393, 3297, 11362, 472, 11364, 11365
2368, 2930, 3298, 3297, 572, 11360, 11365, 11367, 9693
2369, 1245, 1882, 3300, 3263, 5698, 11369, 11370, 11200
2370, 1882, 1301, 1639, 3300, 5695, 4860, 11372, 11369
2371, 3300, 1639, 1314, 3299, 11372, 4857, 11374, 11375
2372, 3263, 3300, 3299, 1281, 11370, 11375, 11377, 11203
2373, 657, 3301, 3303, 3185, 11379, 11380, 11381, 10838
2374, 3301, 617, 3302, 3303, 11383, 11384, 11385, 11380
2375, 3303, 3302, 581, 3265, 11385, 11387, 11212, 11388
2376, 3185, 3303, 3265, 656, 11381, 11388, 11209, 10841
2377, 624, 3304, 3306, 3145, 11391, 11392, 11393, 10655
2378, 3304, 577, 3305, 3306, 11395, 11396, 11397, 11392
2379, 3306, 3305, 660, 3227, 11397, 11399, 11042, 11400
2380, 3145, 3306, 3227, 779, 11393, 11400, 11039, 10647
2381, 564, 3007, 3308, 3215, 10023, 11403, 11404, 10967
2382, 3007, 619, 3307, 3308, 10031, 11406, 11407, 11403
2383, 3308, 3307, 20, 21, 11407, 11409, 60, 11410
2384, 3215, 3308, 21, 22, 11404, 11410, 61, 10971
2385, 696, 3309, 3310, 3281, 11413, 11414, 11415, 11285
2386, 3309, 18, 19, 3310, 11417, 58, 11418, 11414
2387, 3310, 19, 20, 3307, 11418, 59, 11409, 11420
2388, 3281, 3310, 3307, 619, 11415, 11420, 11406, 11289
2389, 1220, 3039, 3311, 1478, 10167, 11423, 11424, 4327
2390, 3039, 1183, 2942, 3311, 10164, 9755, 11426, 11423
2391, 3311, 2942, 1225, 1719, 11426, 9752, 5129, 11428
2392, 1478, 3311, 1719, 1264, 11424, 11428, 5125, 4316
2393, 659, 3128, 3314, 3313, 10575, 11431, 11432, 11433
2394, 3128, 781, 3259, 3314, 10571, 11175, 11435, 11431
2395, 3314, 3259, 579, 3312, 11435, 11183, 11437, 11438
2396, 3313, 3314, 3312, 616, 11432, 11438, 11440, 11441
2397, 695, 3315, 3316, 2844, 11443, 11444, 11445, 9340
2398, 3315, 256, 257, 3316, 11447, 296, 11448, 11444
2399, 3316, 257, 258, 3295, 11448, 297, 11353, 11450
2400, 2844, 3316, 3295, 612, 11445, 11450, 11349, 9343
2401, 787, 3317, 3319, 3194, 11453, 11454, 11455, 10874
2402, 3317, 578, 3318, 3319, 11457, 11458, 11459, 11454
2403, 3319, 3318, 706, 3287, 11459, 11461, 11321, 11462
2404, 3194, 3319, 3287, 858, 11455, 11462, 11318, 10877
2405, 843, 2156, 3320, 2937, 6652, 11465, 11466, 9726
2406, 2156, 909, 2243, 3320, 6647, 6974, 11468, 11465
2407, 3320, 2243, 831, 2723, 11468, 6971, 8865, 11470
2408, 2937, 3320, 2723, 760, 11466, 11470, 8861, 9729
2409, 659, 3321, 3323, 3129, 11473, 11474, 11475, 10576
2410, 3321, 621, 3322, 3323, 11477, 11478, 11479, 11474
2411, 3323, 3322, 615, 3290, 11479, 11481, 11331, 11482
2412, 3129, 3323, 3290, 784, 11475, 11482, 11327, 10579
2413, 572, 3297, 3325, 2679, 11367, 11485, 11486, 8677
2414, 3297, 393, 394, 3325, 11364, 473, 11488, 11485
2415, 3325, 394, 395, 3324, 11488, 474, 11490, 11491
2416, 2679, 3325, 3324, 694, 11486, 11491, 11493, 8680
2417, 861, 3239, 3328, 3193, 11098, 11495, 11496, 10869
2418, 3239, 785, 3326, 3328, 11093, 11498, 11499, 11495
2419, 3328, 3326, 704, 3327, 11499, 11501, 11502, 11503
2420, 3193, 3328, 3327, 787, 11496, 11503, 11505, 10873
2421, 614, 3329, 3331, 3284, 11507, 11508, 11509, 11300
2422, 3329, 618, 3330, 3331, 11511, 11512, 11513, 11508
2423, 3331, 3330, 699, 3246, 11513, 11515, 11134, 11516
2424, 3284, 3331, 3246, 698, 11509, 11516, 11131, 11303
2425, 1307, 2605, 3334, 3333, 8372, 11519, 11520, 11521
2426, 2605, 1291, 3332, 3334, 8367, 11523, 11524, 11519
2427, 3334, 3332, 1248, 2601, 11524, 11526, 8355, 11527
2428, 3333, 3334, 2601, 1325, 11520, 11527, 8352, 11529
2429, 782, 3210, 3337, 3249, 10939, 11531, 11532, 11137
2430, 3210, 786, 3335, 3337, 10947, 11534, 11535, 11531
2431, 3337, 3335, 625, 3336, 11535, 11537, 11538, 11539
2432, 3249, 3337, 3336, 702, 11532, 11539, 11541, 11141
2433, 699, 3338, 3340, 3247, 11543, 11544, 11545, 11135
2434, 3338, 620, 3339, 3340, 11547, 11548, 11549, 11544
2435, 3340, 3339, 617, 3301, 11549, 11551, 11383, 11552
2436, 3247, 3340, 3301, 657, 11545, 11552, 11379, 11127
2437, 1154, 1744, 3341, 2358, 5216, 11555, 11556, 7417
2438, 1744, 1203, 2463, 3341, 5211, 7807, 11558, 11555
2439, 3341, 2463, 1261, 1558, 11558, 7804, 4589, 11560
2440, 2358, 3341, 1558, 1172, 11556, 11560, 4586, 7422
2441, 830, 2085, 3342, 2257, 6394, 11563, 11564, 7025
2442, 2085, 911, 2814, 3342, 6405, 9230, 11566, 11563
2443, 3342, 2814, 1072, 3141, 11566, 9227, 10631, 11568
2444, 2257, 3342, 3141, 965, 11564, 11568, 10627, 7015
2445, 576, 3343, 3344, 3243, 11571, 11572, 11573, 11110
2446, 3343, 254, 255, 3344, 11575, 294, 11576, 11572
2447, 3344, 255, 256, 3315, 11576, 295, 11447, 11578
2448, 3243, 3344, 3315, 695, 11573, 11578, 11443, 11113
2449, 581, 3345, 3346, 3266, 11581, 11582, 11583, 11213
2450, 3345, 16, 17, 3346, 11585, 56, 11586, 11582
2451, 3346, 17, 18, 3309, 11586, 57, 11417, 11588
2452, 3266, 3346, 3309, 696, 11583, 11588, 11413, 11216
2453, 625, 3335, 3349, 3348, 11537, 11591, 11592, 11593
2454, 3335, 786, 3273, 3349, 11534, 11245, 11595, 11591
2455, 3349, 3273, 700, 3347, 11595, 11242, 11597, 11598
2456, 3348, 3349, 3347, 584, 11592, 11598, 11600, 11601
2457, 689, 3261, 3351, 3147, 11193, 11603, 11604, 10657
2458, 3261, 34, 35, 3351, 11190, 74, 11606, 11603
2459, 3351, 35, 36, 3350, 11606, 75, 11608, 11609
2460, 3147, 3351, 3350, 566, 11604, 11609, 11611, 10661
2461, 777, 3021, 3354, 3240, 10079, 11613, 11614, 11103
2462, 3021, 705, 3352, 3354, 10089, 11616, 11617, 11613
2463, 3354, 3352, 628, 3353, 11617, 11619, 11620, 11621
2464, 3240, 3354, 3353, 785, 11614, 11621, 11623, 11096
2465, 1153, 2908, 3356, 3355, 9602, 11625, 11626, 11627
2466, 2908, 1232, 3252, 3356, 9597, 11153, 11629, 11625
2467, 3356, 3252, 1298, 2747, 11629, 11149, 8965, 11631
2468, 3355, 3356, 2747, 1252, 11626, 11631, 8962, 11633
2469, 908, 2856, 3357, 2432, 9390, 11635, 11636, 7679
2470, 2856, 953, 2766, 3357, 9385, 9044, 11638, 11635
2471, 3357, 2766, 1078, 2200, 11638, 9041, 6809, 11640
2472, 2432, 3357, 2200, 889, 11636, 11640, 6806, 7683
2473, 909, 2159, 3358, 2244, 6650, 11643, 11644, 6975
2474, 2159, 890, 2958, 3358, 6661, 9824, 11646, 11643
2475, 3358, 2958, 1076, 2823, 11646, 9821, 9267, 11648
2476, 2244, 3358, 2823, 959, 11644, 11648, 9264, 6964
2477, 700, 3272, 3361, 3360, 11241, 11651, 11652, 11653
2478, 3272, 660, 3305, 3361, 11237, 11399, 11655, 11651
2479, 3361, 3305, 577, 3359, 11655, 11396, 11657, 11658
2480, 3360, 3361, 3359, 703, 11652, 11658, 11660, 11661
2481, 623, 3362, 3364, 3363, 11663, 11664, 11665, 11666
2482, 3362, 620, 3338, 3364, 11668, 11547, 11669, 11664
2483, 3364, 3338, 699, 3330, 11669, 11543, 11515, 11671
2484, 3363, 3364, 3330, 618, 11665, 11671, 11512, 11673
2485, 685, 3103, 3365, 2425, 10448, 11675, 11676, 7661
2486, 3103, 549, 2921, 3365, 10457, 9648, 11678, 11675
2487, 3365, 2921, 639, 2791, 11678, 9655, 9136, 11680
2488, 2425, 3365, 2791, 734, 11676, 11680, 9133, 7651
2489, 694, 3324, 3367, 3204, 11493, 11683, 11684, 10915
2490, 3324, 395, 396, 3367, 11490, 475, 11686, 11683
2491, 3367, 396, 397, 3366, 11686, 476, 11688, 11689
2492, 3204, 3367, 3366, 580, 11684, 11689, 11691, 10919
2493, 614, 3283, 3369, 3368, 11299, 11693, 11694, 11695
2494, 3283, 580, 3366, 3369, 11295, 11691, 11697, 11693
2495, 3369, 3366, 397, 398, 11697, 11688, 477, 11699
2496, 3368, 3369, 398, 399, 11694, 11699, 478, 11701
2497, 566, 3350, 3371, 2991, 11611, 11703, 11704, 9961
2498, 3350, 36, 37, 3371, 11608, 76, 11706, 11703
2499, 3371, 37, 38, 3370, 11706, 77, 11708, 11709
2500, 2991, 3371, 3370, 697, 11704, 11709, 11711, 9964
2501, 615, 3372, 3373, 3291, 11713, 11714, 11715, 11332
2502, 3372, 252, 253, 3373, 11717, 292, 11718, 11714
2503, 3373, 253, 254, 3343, 11718, 293, 11575, 11720
2504, 3291, 3373, 3343, 576, 11715, 11720, 11571, 11335
2505, 618, 3329, 3375, 3374, 11511, 11723, 11724, 11725
2506, 3329, 614, 3368, 3375, 11507, 11695, 11727, 11723
2507, 3375, 3368, 399, 400, 11727, 11701, 479, 11729
2508, 3374, 3375, 400, 401, 11724, 11729, 480, 11731
2509, 808, 2025, 3376, 1577, 6192, 11733, 11734, 4651
2510, 2025, 883, 1946, 3376, 6187, 5915, 11736, 11733
2511, 3376, 1946, 976, 1910, 11736, 5912, 5792, 11738
2512, 1577, 3376, 1910, 839, 11734, 11738, 5789, 4640
2513, 697, 3370, 3378, 3144, 11711, 11741, 11742, 10651
2514, 3370, 38, 39, 3378, 11708, 78, 11744, 11741
2515, 3378, 39, 40, 3377, 11744, 79, 11746, 11747
2516, 3144, 3378, 3377, 624, 11742, 11747, 11749, 10654
2517, 691, 3278, 3380, 3116, 11275, 11751, 11752, 10511
2518, 3278, 155, 156, 3380, 11272, 235, 11754, 11751
2519, 3380, 156, 157, 3379, 11754, 236, 11756, 11757
2520, 3116, 3380, 3379, 573, 11752, 11757, 11759, 10515
2521, 659, 3313, 3383, 3321, 11433, 11761, 11762, 11473
2522, 3313, 616, 3381, 3383, 11441, 11764, 11765, 11761
2523, 3383, 3381, 622, 3382, 11765, 11767, 11768, 11769
2524, 3321, 3383, 3382, 621, 11762, 11769, 11771, 11477
2525, 621, 3384, 3385, 3322, 11773, 11774, 11775, 11478
2526, 3384, 250, 251, 3385, 11777, 290, 11778, 11774
2527, 3385, 251, 252, 3372, 11778, 291, 11717, 11780
2528, 3322, 3385, 3372, 615, 11775, 11780, 11713, 11481
2529, 703, 3386, 3388, 3360, 11783, 11784, 11785, 11661
2530, 3386, 626, 3387, 3388, 11787, 11788, 11789, 11784
2531, 3388, 3387, 584, 3347, 11789, 11791, 11600, 11792
2532, 3360, 3388, 3347, 700, 11785, 11792, 11597, 11653
2533, 573, 3379, 3390, 2955, 11759, 11795, 11796, 9811
2534, 3379, 157, 158, 3390, 11756, 237, 11798, 11795
2535, 3390, 158, 159, 3389, 11798, 238, 11800, 11801
2536, 2955, 3390, 3389, 701, 11796, 11801, 11803, 9814
2537, 617, 3391, 3392, 3302, 11805, 11806, 11807, 11384
2538, 3391, 14, 15, 3392, 11809, 54, 11810, 11806
2539, 3392, 15, 16, 3345, 11810, 55, 11585, 11812
2540, 3302, 3392, 3345, 581, 11807, 11812, 11581, 11387
2541, 620, 3393, 3394, 3339, 11815, 11816, 11817, 11548
2542, 3393, 12, 13, 3394, 11819, 52, 11820, 11816
2543, 3394, 13, 14, 3391, 11820, 53, 11809, 11822
2544, 3339, 3394, 3391, 617, 11817, 11822, 11805, 11551
2545, 702, 3395, 3396, 3250, 11825, 11826, 11827, 11142
2546, 3395, 95, 96, 3396, 11829, 175, 11830, 11826
2547, 3396, 96, 97, 3293, 11830, 176, 11343, 11832
2548, 3250, 3396, 3293, 574, 11827, 11832, 11339, 11145
2549, 701, 3389, 3398, 3258, 11803, 11835, 11836, 11179
2550, 3389, 159, 160, 3398, 11800, 239, 11838, 11835
2551, 3398, 160, 161, 3397, 11838, 240, 11840, 11841
2552, 3258, 3398, 3397, 579, 11836, 11841, 11843, 11182
2553, 616, 3312, 3400, 3399, 11440, 11845, 11846, 11847
2554, 3312, 579, 3397, 3400, 11437, 11843, 11849, 11845
2555, 3400, 3397, 161, 162, 11849, 11840, 241, 11851
2556, 3399, 3400, 162, 163, 11846, 11851, 242, 11853
2557, 1063, 1826, 3401, 2225, 5500, 11855, 11856, 6901
2558, 1826, 967, 2646, 3401, 5495, 8546, 11858, 11855
2559, 3401, 2646, 1178, 2652, 11858, 8543, 8566, 11860
2560, 2225, 3401, 2652, 1107, 11856, 11860, 8563, 6890
2561, 623, 3363, 3403, 3402, 11666, 11863, 11864, 11865
2562, 3363, 618, 3374, 3403, 11673, 11725, 11867, 11863
2563, 3403, 3374, 401, 402, 11867, 11731, 481, 11869
2564, 3402, 3403, 402, 403, 11864, 11869, 482, 11871
2565, 622, 3404, 3405, 3382, 11873, 11874, 11875, 11768
2566, 3404, 248, 249, 3405, 11877, 288, 11878, 11874
2567, 3405, 249, 250, 3384, 11878, 289, 11777, 11880
2568, 3382, 3405, 3384, 621, 11875, 11880, 11773, 11771
2569, 625, 3406, 3407, 3336, 11883, 11884, 11885, 11538
2570, 3406, 93, 94, 3407, 11887, 173, 11888, 11884
2571, 3407, 94, 95, 3395, 11888, 174, 11829, 11890
2572, 3336, 3407, 3395, 702, 11885, 11890, 11825, 11541
2573, 623, 3408, 3409, 3362, 11893, 11894, 11895, 11663
2574, 3408, 10, 11, 3409, 11897, 50, 11898, 11894
2575, 3409, 11, 12, 3393, 11898, 51, 11819, 11900
2576, 3362, 3409, 3393, 620, 11895, 11900, 11815, 11668
2577, 1008, 3410, 3411, 2858, 11903, 11904, 11905, 9397
2578, 3410, 1031, 2699, 3411, 11907, 8765, 11908, 11904
2579, 3411, 2699, 1137, 2767, 11908, 8762, 9048, 11910
2580, 2858, 3411, 2767, 953, 11905, 11910, 9045, 9388
2581, 616, 3399, 3413, 3381, 11847, 11913, 11914, 11764
2582, 3399, 163, 164, 3413, 11853, 243, 11916, 11913
2583, 3413, 164, 165, 3412, 11916, 244, 11918, 11919
2584, 3381, 3413, 3412, 622, 11914, 11919, 11921, 11767
2585, 165, 166, 3414, 3412, 245, 11923, 11924, 11918
2586, 166, 3, 247, 3414, 246, 286, 11926, 11923
2587, 3414, 247, 248, 3404, 11926, 287, 11877, 11928
2588, 3412, 3414, 3404, 622, 11924, 11928, 11873, 11921
2589, 624, 3377, 3416, 3304, 11749, 11931, 11932, 11391
2590, 3377, 40, 41, 3416, 11746, 80, 11934, 11931
2591, 3416, 41, 42, 3415, 11934, 81, 11936, 11937
2592, 3304, 3416, 3415, 577, 11932, 11937, 11939, 11395
2593, 403, 404, 3417, 3402, 483, 11941, 11942, 11871
2594, 404, 1, 9, 3417, 484, 48, 11944, 11941
2595, 3417, 9, 10, 3408, 11944, 49, 11897, 11946
2596, 3402, 3417, 3408, 623, 11942, 11946, 11893, 11865
2597, 577, 3415, 3419, 3359, 11939, 11949, 11950, 11657
2598, 3415, 42, 43, 3419, 11936, 82, 11952, 11949
2599, 3419, 43, 44, 3418, 11952, 83, 11954, 11955
2600, 3359, 3419, 3418, 703, 11950, 11955, 11957, 11660
2601, 625, 3348, 3421, 3406, 11593, 11959, 11960, 11883
2602, 3348, 584, 3420, 3421, 11601, 11962, 11963, 11959
2603, 3421, 3420, 91, 92, 11963, 11965, 171, 11966
2604, 3406, 3421, 92, 93, 11960, 11966, 172, 11887
2605, 703, 3418, 3423, 3386, 11957, 11969, 11970, 11783
2606, 3418, 44, 45, 3423, 11954, 84, 11972, 11969
2607, 3423, 45, 46, 3422, 11972, 85, 11974, 11975
2608, 3386, 3423, 3422, 626, 11970, 11975, 11977, 11787
2609, 584, 3387, 3425, 3420, 11791, 11979, 11980, 11962
2610, 3387, 626, 3424, 3425, 11788, 11982, 11983, 11979
2611, 3425, 3424, 89, 90, 11983, 11985, 169, 11986
2612, 3420, 3425, 90, 91, 11980, 11986, 170, 11965
2613, 46, 47, 3426, 3422, 86, 11989, 11990, 11974
2614, 47, 2, 88, 3426, 87, 167, 11992, 11989
2615, 3426, 88, 89, 3424, 11992, 168, 11985, 11994
2616, 3422, 3426, 3424, 626, 11990, 11994, 11982, 11977
2617, 787, 3327, 3429, 3317, 11505, 11997, 11998, 11453
2618, 3327, 704, 3427, 3429, 11502, 12000, 12001, 11997
2619, 3429, 3427, 707, 3428, 12001, 12003, 12004, 12005
2620, 3317, 3429, 3428, 578, 11998, 12005, 12007, 11457
2621, 704, 3430, 3433, 3427, 12009, 12010, 12011, 12000
2622, 3430, 586, 3431, 3433, 12013, 12014, 12015, 12010
2623, 3433, 3431, 627, 3432, 12015, 12017, 12018, 12019
2624, 3427, 3433, 3432, 707, 12011, 12019, 12021, 12003
2625, 586, 3434, 3436, 3431, 12023, 12024, 12025, 12014
2626, 3434, 282, 283, 3436, 12027, 322, 12028, 12024
2627, 3436, 283, 284, 3435, 12028, 323, 12030, 12031
2628, 3431, 3436, 3435, 627, 12025, 12031, 12033, 12017
2629, 785, 3353, 3438, 3326, 11623, 12035, 12036, 11498
2630, 3353, 628, 3437, 3438, 11620, 12038, 12039, 12035
2631, 3438, 3437, 586, 3430, 12039, 12041, 12013, 12042
2632, 3326, 3438, 3430, 704, 12036, 12042, 12009, 11501
2633, 628, 3352, 3441, 3440, 11619, 12045, 12046, 12047
2634, 3352, 705, 3439, 3441, 11616, 12049, 12050, 12045
2635, 3441, 3439, 278, 279, 12050, 12052, 318, 12053
2636, 3440, 3441, 279, 280, 12046, 12053, 319, 12055
2637, 586, 3437, 3442, 3434, 12041, 12057, 12058, 12023
2638, 3437, 628, 3440, 3442, 12038, 12047, 12060, 12057
2639, 3442, 3440, 280, 281, 12060, 12055, 320, 12062
2640, 3434, 3442, 281, 282, 12058, 12062, 321, 12027
2641, 575, 3443, 3444, 3020, 12065, 12066, 12067, 10085
2642, 3443, 276, 277, 3444, 12069, 316, 12070, 12066
2643, 3444, 277, 278, 3439, 12070, 317, 12052, 12072
2644, 3020, 3444, 3439, 705, 12067, 12072, 12049, 10088
2645, 690, 3276, 3445, 3139, 11265, 12075, 12076, 10617
2646, 3276, 274, 275, 3445, 11262, 314, 12078, 12075
2647, 3445, 275, 276, 3443, 12078, 315, 12069, 12080
2648, 3139, 3445, 3443, 575, 12076, 12080, 12065, 10621
2649, 329, 330, 3448, 3447, 409, 12083, 12084, 12085
2650, 330, 331, 3446, 3448, 410, 12087, 12088, 12083
2651, 3448, 3446, 578, 3428, 12088, 12090, 12007, 12091
2652, 3447, 3448, 3428, 707, 12084, 12091, 12004, 12093
2653, 706, 3318, 3450, 3449, 11461, 12095, 12096, 12097
2654, 3318, 578, 3446, 3450, 11458, 12090, 12099, 12095
2655, 3450, 3446, 331, 332, 12099, 12087, 411, 12101
2656, 3449, 3450, 332, 333, 12096, 12101, 412, 12103
2657, 706, 3449, 3452, 3288, 12097, 12105, 12106, 11322
2658, 3449, 333, 334, 3452, 12103, 413, 12108, 12105
2659, 3452, 334, 335, 3451, 12108, 414, 12110, 12111
2660, 3288, 3452, 3451, 585, 12106, 12111, 12113, 11325
2661, 692, 3199, 3453, 3231, 10893, 12115, 12116, 11053
2662, 3199, 585, 3451, 3453, 10901, 12113, 12118, 12115
2663, 3453, 3451, 335, 336, 12118, 12110, 415, 12120
2664, 3231, 3453, 336, 337, 12116, 12120, 416, 11057
2665, 284, 285, 3455, 3435, 324, 12123, 12124, 12030
2666, 285, 4, 326, 3455, 325, 405, 12126, 12123
2667, 3455, 326, 327, 3454, 12126, 406, 12128, 12129
2668, 3435, 3455, 3454, 627, 12124, 12129, 12131, 12033
2669, 707, 3432, 3456, 3447, 12021, 12133, 12134, 12093
2670, 3432, 627, 3454, 3456, 12018, 12131, 12136, 12133
2671, 3456, 3454, 327, 328, 12136, 12128, 407, 12138
2672, 3447, 3456, 328, 329, 12134, 12138, 408, 12085
2673, 1059, 2241, 3457, 2866, 6966, 12141, 12142, 9425
2674, 2241, 959, 2822, 3457, 6961, 9263, 12144, 12141
2675, 3457, 2822, 1187, 1770, 12144, 9260, 5305, 12146
2676, 2866, 3457, 1770, 1105, 12142, 12146, 5302, 9414
2677, 851, 2810, 3458, 1889, 9211, 12149, 12150, 5719
2678, 2810, 958, 2883, 3458, 9208, 9486, 12152, 12149
2679, 3458, 2883, 1068, 2079, 12152, 9495, 6388, 12154
2680, 1889, 3458, 2079, 915, 12150, 12154, 6385, 5708
2681, 1355, 1682, 3459, 1728, 5003, 12157, 12158, 5160
2682, 1682, 1332, 1444, 3459, 5000, 4218, 12160, 12157
2683, 3459, 1444, 1281, 3299, 12160, 4215, 11377, 12162
2684, 1728, 3459, 3299, 1314, 12158, 12162, 11374, 5163
2685, 1175, 3096, 3460, 1605, 10417, 12165, 12166, 4743
2686, 3096, 1153, 3355, 3460, 10425, 11627, 12168, 12165
2687, 3460, 3355, 1252, 3207, 12168, 11633, 10935, 12170
2688, 1605, 3460, 3207, 1206, 12166, 12170, 10932, 4732
2689, 1126, 2504, 3461, 1700, 7960, 12173, 12174, 5065
2690, 2504, 1166, 2491, 3461, 7955, 7911, 12176, 12173
2691, 3461, 2491, 1223, 1732, 12176, 7908, 5178, 12178
2692, 1700, 3461, 1732, 1111, 12174, 12178, 5175, 5054
2693, 989, 3042, 3463, 3462, 10171, 12181, 12182, 12183
2694, 3042, 950, 2864, 3463, 10179, 9420, 12185, 12181
2695, 3463, 2864, 1125, 2910, 12185, 9417, 9610, 12187
2696, 3462, 3463, 2910, 1024, 12182, 12187, 9607, 12189
2697, 1082, 2674, 3464, 1984, 8661, 12191, 12192, 6041
2698, 2674, 989, 3462, 3464, 8658, 12183, 12194, 12191
2699, 3464, 3462, 1024, 3095, 12194, 12189, 10422, 12196
2700, 1984, 3464, 3095, 1124, 12192, 12196, 10419, 6030
2701, 913, 1642, 3467, 1391, 4868, 12199, 12200, 4045
2702, 1642, 945, 3465, 3467, 4863, 12202, 12203, 12199
2703, 3467, 3465, 791, 3466, 12203, 12205, 12206, 12207
2704, 1391, 3467, 3466, 868, 12200, 12207, 12209, 4034
2705, 949, 3468, 3469, 1780, 12211, 12212, 12213, 5339
2706, 3468, 1029, 3124, 3469, 12215, 10557, 12216, 12212
2707, 3469, 3124, 1129, 1802, 12216, 10554, 5420, 12218
2708, 1780, 3469, 1802, 990, 12213, 12218, 5417, 5328
2709, 1337, 3470, 3471, 2472, 12221, 12222, 12223, 7840
2710, 3470, 1351, 1928, 3471, 12225, 5858, 12226, 12222
2711, 3471, 1928, 1352, 1993, 12226, 5855, 6071, 12228
2712, 2472, 3471, 1993, 1342, 12223, 12228, 6068, 7843
2713, 1127, 2222, 3473, 1626, 6892, 12231, 12232, 4813
2714, 2222, 1107, 2651, 3473, 6887, 8562, 12234, 12231
2715, 3473, 2651, 1230, 3472, 12234, 8559, 12236, 12237
2716, 1626, 3473, 3472, 1155, 12232, 12237, 12239, 4816
2717, 1226, 1662, 3474, 2971, 4933, 12241, 12242, 9875
2718, 1662, 1248, 3332, 3474, 4930, 11526, 12244, 12241
2719, 3474, 3332, 1291, 2627, 12244, 11523, 8467, 12246
2720, 2971, 3474, 2627, 1202, 12242, 12246, 8464, 9864
2721, 1123, 1675, 3475, 2361, 4968, 12249, 12250, 7431
2722, 1675, 1110, 2771, 3475, 4979, 9060, 12252, 12249
2723, 3475, 2771, 1224, 1745, 12252, 9057, 5220, 12254
2724, 2361, 3475, 1745, 1154, 12250, 12254, 5217, 7420
2725, 596, 2688, 3476, 1979, 8708, 12257, 12258, 6025
2726, 2688, 671, 2417, 3476, 8715, 7624, 12260, 12257
2727, 3476, 2417, 747, 3154, 12260, 7633, 10695, 12262
2728, 1979, 3476, 3154, 837, 12258, 12262, 10692, 6015
2729, 1208, 3188, 3477, 3113, 10856, 12265, 12266, 10502
2730, 3188, 1272, 2832, 3477, 10853, 9302, 12268, 12265
2731, 3477, 2832, 1229, 2898, 12268, 9299, 9561, 12270
2732, 3113, 3477, 2898, 1159, 12266, 12270, 9558, 10505
2733, 931, 2046, 3478, 2928, 6270, 12273, 12274, 9679
2734, 2046, 968, 1970, 3478, 6265, 5996, 12276, 12273
2735, 3478, 1970, 874, 2318, 12276, 5993, 7263, 12278
2736, 2928, 3478, 2318, 848, 12274, 12278, 7259, 9683
2737, 1055, 1508, 3479, 2577, 4426, 12281, 12282, 8248
2738, 1508, 1030, 2662, 3479, 4421, 8607, 12284, 12281
2739, 3479, 2662, 1179, 3191, 12284, 8604, 10863, 12286
2740, 2577, 3479, 3191, 1100, 12282, 12286, 10859, 8251
2741, 1106, 3114, 3480, 2873, 10509, 12289, 12290, 9446
2742, 3114, 1159, 2897, 3480, 10506, 9557, 12292, 12289
2743, 3480, 2897, 1133, 2812, 12292, 9554, 9221, 12294
2744, 2873, 3480, 2812, 1077, 12290, 12294, 9218, 9449
2745, 1295, 2643, 3481, 3187, 8529, 12297, 12298, 10849
2746, 2643, 1284, 3171, 3481, 8535, 10782, 12300, 12297
2747, 3481, 3171, 1262, 2833, 12300, 10777, 9306, 12302
2748, 3187, 3481, 2833, 1272, 12298, 12302, 9303, 10852
2749, 1080, 3482, 3483, 2925, 12305, 12306, 12307, 9667
2750, 3482, 1108, 3058, 3483, 12309, 10246, 12310, 12306
2751, 3483, 3058, 1031, 3410, 12310, 10243, 11907, 12312
2752, 2925, 3483, 3410, 1008, 12307, 12312, 11903, 9671
2753, 732, 3484, 3488, 3487, 12315, 12316, 12317, 12318
2754, 3484, 947, 3485, 3488, 12320, 12321, 12322, 12316
2755, 3488, 3485, 1013, 3486, 12322, 12324, 12325, 12326
2756, 3487, 3488, 3486, 813, 12317, 12326, 12328, 12329
2757, 629, 3489, 3492, 2485, 12331, 12332, 12333, 7886
2758, 3489, 663, 3490, 3492, 12335, 12336, 12337, 12332
2759, 3492, 3490, 716, 3491, 12337, 12339, 12340, 12341
2760, 2485, 3492, 3491, 864, 12333, 12341, 12343, 7889
2761, 1325, 3493, 3495, 3333, 12345, 12346, 12347, 11529
2762, 3493, 1333, 1737, 3495, 12349, 5194, 12350, 12346
2763, 3495, 1737, 1347, 3494, 12350, 5191, 12352, 12353
2764, 3333, 3495, 3494, 1307, 12347, 12353, 12355, 11521
2765, 1207, 3033, 3497, 3093, 10140, 12357, 12358, 10413
2766, 3033, 1257, 3496, 3497, 10135, 12360, 12361, 12357
2767, 3497, 3496, 1215, 2998, 12361, 12363, 9995, 12364
2768, 3093, 3497, 2998, 1160, 12358, 12364, 9992, 10407
2769, 1105, 1769, 3498, 2863, 5301, 12367, 12368, 9411
2770, 1769, 1177, 3253, 3498, 5297, 11157, 12370, 12367
2771, 3498, 3253, 1232, 2911, 12370, 11154, 9600, 12372
2772, 2863, 3498, 2911, 1125, 12368, 12372, 9611, 9416
2773, 1250, 1724, 3501, 1923, 5150, 12375, 12376, 5833
2774, 1724, 1324, 3499, 3501, 5147, 12378, 12379, 12375
2775, 3501, 3499, 1338, 3500, 12379, 12381, 12382, 12383
2776, 1923, 3501, 3500, 1292, 12376, 12383, 12385, 5838
2777, 1204, 3502, 3505, 3504, 12387, 12388, 12389, 12390
2778, 3502, 1271, 3503, 3505, 12392, 12393, 12394, 12388
2779, 3505, 3503, 1320, 1704, 12394, 12396, 5069, 12397
2780, 3504, 3505, 1704, 1299, 12389, 12397, 5079, 12399
2781, 550, 1750, 3509, 3508, 5235, 12401, 12402, 12403
2782, 1750, 661, 3506, 3509, 5232, 12405, 12406, 12401
2783, 3509, 3506, 865, 3507, 12406, 12408, 12409, 12410
2784, 3508, 3509, 3507, 788, 12402, 12410, 12412, 12413
2785, 1250, 1926, 3512, 1725, 5836, 12415, 12416, 5151
2786, 1926, 1168, 3510, 3512, 5847, 12418, 12419, 12415
2787, 3512, 3510, 1255, 3511, 12419, 12421, 12422, 12423
2788, 1725, 3512, 3511, 1294, 12416, 12423, 12425, 5141
2789, 1171, 3513, 3514, 2849, 12427, 12428, 12429, 9364
2790, 3513, 1238, 1409, 3514, 12431, 4104, 12432, 12428
2791, 3514, 1409, 1194, 1866, 12432, 4101, 5628, 12434
2792, 2849, 3514, 1866, 1118, 12429, 12434, 5637, 9367
2793, 1271, 3515, 3517, 3503, 12437, 12438, 12439, 12393
2794, 3515, 1305, 3516, 3517, 12441, 12442, 12443, 12438
2795, 3517, 3516, 1341, 1565, 12443, 12445, 4614, 12446
2796, 3503, 3517, 1565, 1320, 12439, 12446, 4611, 12396
2797, 1189, 3518, 3521, 3520, 12449, 12450, 12451, 12452
2798, 3518, 1237, 3519, 3521, 12454, 12455, 12456, 12450
2799, 3521, 3519, 1305, 3515, 12456, 12458, 12441, 12459
2800, 3520, 3521, 3515, 1271, 12451, 12459, 12437, 12461
2801, 1254, 1599, 3523, 2709, 4724, 12463, 12464, 8811
2802, 1599, 1294, 3511, 3523, 4721, 12425, 12466, 12463
2803, 3523, 3511, 1255, 3522, 12466, 12422, 12468, 12469
2804, 2709, 3523, 3522, 1327, 12464, 12469, 12471, 8804
2805, 1099, 3524, 3527, 3526, 12473, 12474, 12475, 12476
2806, 3524, 1191, 3525, 3527, 12478, 12479, 12480, 12474
2807, 3527, 3525, 1255, 3510, 12480, 12482, 12421, 12483
2808, 3526, 3527, 3510, 1168, 12475, 12483, 12418, 12485
2809, 803, 2183, 3528, 1610, 6752, 12487, 12488, 4759
2810, 2183, 878, 2305, 3528, 6749, 7216, 12490, 12487
2811, 3528, 2305, 987, 2048, 12490, 7213, 6278, 12492
2812, 1610, 3528, 2048, 824, 12488, 12492, 6275, 4748
2813, 986, 3529, 3532, 1485, 12495, 12496, 12497, 4345
2814, 3529, 943, 3530, 3532, 12499, 12500, 12501, 12496
2815, 3532, 3530, 1034, 3531, 12501, 12503, 12504, 12505
2816, 1485, 3532, 3531, 1094, 12497, 12505, 12507, 4350
2817, 873, 1690, 3536, 3535, 5034, 12509, 12510, 12511
2818, 1690, 1023, 3533, 3536, 5031, 12513, 12514, 12509
2819, 3536, 3533, 1119, 3534, 12514, 12516, 12517, 12518
2820, 3535, 3536, 3534, 1010, 12510, 12518, 12520, 12521
2821, 1099, 3526, 3537, 1487, 12476, 12523, 12524, 4355
2822, 3526, 1168, 1925, 3537, 12485, 5846, 12526, 12523
2823, 3537, 1925, 1239, 1546, 12526, 5843, 4550, 12528
2824, 1487, 3537, 1546, 1122, 12524, 12528, 4545, 4358
2825, 1060, 1672, 3538, 3079, 4970, 12531, 12532, 10349
2826, 1672, 1123, 2360, 3538, 4965, 7430, 12534, 12531
2827, 3538, 2360, 1029, 3468, 12534, 7427, 12215, 12536
2828, 3079, 3538, 3468, 949, 12532, 12536, 12211, 10343
2829, 1271, 3502, 3541, 3520, 12392, 12539, 12540, 12461
2830, 3502, 1204, 3539, 3541, 12387, 12542, 12543, 12539
2831, 3541, 3539, 1098, 3540, 12543, 12545, 12546, 12547
2832, 3520, 3541, 3540, 1189, 12540, 12547, 12549, 12452
2833, 943, 3542, 3545, 3530, 12551, 12552, 12553, 12500
2834, 3542, 1012, 3543, 3545, 12555, 12556, 12557, 12552
2835, 3545, 3543, 1141, 3544, 12557, 12559, 12560, 12561
2836, 3530, 3545, 3544, 1034, 12553, 12561, 12563, 12503
2837, 1208, 3112, 3546, 3189, 10501, 12565, 12566, 10857
2838, 3112, 1173, 3175, 3546, 10497, 10797, 12568, 12565
2839, 3546, 3175, 1222, 1556, 12568, 10794, 4581, 12570
2840, 3189, 3546, 1556, 1251, 12566, 12570, 4577, 10847
2841, 913, 1390, 3550, 3549, 4044, 12573, 12574, 12575
2842, 1390, 799, 3547, 3550, 4041, 12577, 12578, 12573
2843, 3550, 3547, 876, 3548, 12578, 12580, 12581, 12582
2844, 3549, 3550, 3548, 1019, 12574, 12582, 12584, 12585
2845, 560, 3551, 3553, 1470, 12587, 12588, 12589, 4297
2846, 3551, 629, 2484, 3553, 12591, 7885, 12592, 12588
2847, 3553, 2484, 738, 3552, 12592, 7882, 12594, 12595
2848, 1470, 3553, 3552, 647, 12589, 12595, 12597, 4302
2849, 1143, 3554, 3557, 3556, 12599, 12600, 12601, 12602
2850, 3554, 1157, 1543, 3557, 12604, 4542, 12605, 12600
2851, 3557, 1543, 1276, 3555, 12605, 4539, 12607, 12608
2852, 3556, 3557, 3555, 1233, 12601, 12608, 12610, 12611
2853, 888, 3558, 3561, 1386, 12613, 12614, 12615, 4029
2854, 3558, 946, 3559, 3561, 12617, 12618, 12619, 12614
2855, 3561, 3559, 790, 3560, 12619, 12621, 12622, 12623
2856, 1386, 3561, 3560, 869, 12615, 12623, 12625, 4018
2857, 661, 1749, 3565, 3564, 5231, 12627, 12628, 12629
2858, 1749, 8, 3562, 3565, 5227, 12631, 12632, 12627
2859, 3565, 3562, 548, 3563, 12632, 12634, 12635, 12636
2860, 3564, 3565, 3563, 708, 12628, 12636, 12638, 12639
2861, 1338, 3566, 3568, 3500, 12641, 12642, 12643, 12382
2862, 3566, 1309, 1433, 3568, 12645, 4182, 12646, 12642
2863, 3568, 1433, 1246, 3567, 12646, 4179, 12648, 12649
2864, 3500, 3568, 3567, 1292, 12643, 12649, 12651, 12385
2865, 1026, 2101, 3569, 1968, 6462, 12653, 12654, 5983
2866, 2101, 1096, 2969, 3569, 6459, 9870, 12656, 12653
2867, 3569, 2969, 1185, 2506, 12656, 9867, 7968, 12658
2868, 1968, 3569, 2506, 1057, 12654, 12658, 7965, 5988
2869, 1277, 3570, 3573, 3572, 12661, 12662, 12663, 12664
2870, 3570, 1255, 3525, 3573, 12666, 12482, 12667, 12662
2871, 3573, 3525, 1191, 3571, 12667, 12479, 12669, 12670
2872, 3572, 3573, 3571, 1234, 12663, 12670, 12672, 12673
2873, 1218, 3574, 3575, 1775, 12675, 12676, 12677, 5323
2874, 3574, 1119, 3533, 3575, 12679, 12516, 12680, 12676
2875, 3575, 3533, 1023, 1548, 12680, 12513, 4558, 12682
2876, 1775, 3575, 1548, 1158, 12677, 12682, 4555, 5314
2877, 869, 3560, 3579, 3578, 12625, 12685, 12686, 12687
2878, 3560, 790, 3576, 3579, 12622, 12689, 12690, 12685
2879, 3579, 3576, 632, 3577, 12690, 12692, 12693, 12694
2880, 3578, 3579, 3577, 712, 12686, 12694, 12696, 12697
2881, 986, 3580, 3583, 3529, 12699, 12700, 12701, 12495
2882, 3580, 789, 3581, 3583, 12703, 12704, 12705, 12700
2883, 3583, 3581, 866, 3582, 12705, 12707, 12708, 12709
2884, 3529, 3583, 3582, 943, 12701, 12709, 12711, 12499
2885, 709, 3584, 3588, 3587, 12713, 12714, 12715, 12716
2886, 3584, 791, 3585, 3588, 12718, 12719, 12720, 12714
2887, 3588, 3585, 636, 3586, 12720, 12722, 12723, 12724
2888, 3587, 3588, 3586, 631, 12715, 12724, 12726, 12727
2889, 663, 3589, 3591, 3590, 12729, 12730, 12731, 12732
2890, 3589, 533, 532, 3591, 12734, 540, 12735, 12730
2891, 3591, 532, 531, 1751, 12735, 539, 5239, 12737
2892, 3590, 3591, 1751, 550, 12731, 12737, 5236, 12739
2893, 1021, 3592, 3595, 3594, 12741, 12742, 12743, 12744
2894, 3592, 867, 3593, 3595, 12746, 12747, 12748, 12742
2895, 3595, 3593, 790, 3559, 12748, 12750, 12621, 12751
2896, 3594, 3595, 3559, 946, 12743, 12751, 12618, 12753
2897, 1010, 3596, 3599, 3598, 12755, 12756, 12757, 12758
2898, 3596, 942, 3597, 3599, 12760, 12761, 12762, 12756
2899, 3599, 3597, 788, 3507, 12762, 12764, 12412, 12765
2900, 3598, 3599, 3507, 865, 12757, 12765, 12409, 12767
2901, 1233, 3600, 3603, 3556, 12769, 12770, 12771, 12611
2902, 3600, 1278, 3601, 3603, 12773, 12774, 12775, 12770
2903, 3603, 3601, 1091, 3602, 12775, 12777, 12778, 12779
2904, 3556, 3603, 3602, 1143, 12771, 12779, 12781, 12602
2905, 548, 3604, 3607, 3606, 12783, 12784, 12785, 12786
2906, 3604, 662, 3605, 3607, 12788, 12789, 12790, 12784
2907, 3607, 3605, 866, 3581, 12790, 12792, 12707, 12793
2908, 3606, 3607, 3581, 789, 12785, 12793, 12704, 12795
2909, 988, 3608, 3610, 3609, 12797, 12798, 12799, 12800
2910, 3608, 1032, 1561, 3610, 12802, 4602, 12803, 12798
2911, 3610, 1561, 1157, 3554, 12803, 4599, 12604, 12805
2912, 3609, 3610, 3554, 1143, 12799, 12805, 12599, 12807
2913, 877, 3611, 3615, 3614, 12809, 12810, 12811, 12812
2914, 3611, 862, 3612, 3615, 12814, 12815, 12816, 12810
2915, 3615, 3612, 636, 3613, 12816, 12818, 12819, 12820
2916, 3614, 3615, 3613, 797, 12811, 12820, 12822, 12823
2917, 945, 3616, 3617, 3465, 12825, 12826, 12827, 12202
2918, 3616, 797, 3613, 3617, 12829, 12822, 12830, 12826
2919, 3617, 3613, 636, 3585, 12830, 12819, 12722, 12832
2920, 3465, 3617, 3585, 791, 12827, 12832, 12719, 12205
2921, 1086, 3618, 3621, 3620, 12835, 12836, 12837, 12838
2922, 3618, 901, 3619, 3621, 12840, 12841, 12842, 12836
2923, 3621, 3619, 813, 3486, 12842, 12844, 12328, 12845
2924, 3620, 3621, 3486, 1013, 12837, 12845, 12325, 12847
2925, 867, 3622, 3624, 3593, 12849, 12850, 12851, 12747
2926, 3622, 637, 3623, 3624, 12853, 12854, 12855, 12850
2927, 3624, 3623, 632, 3576, 12855, 12857, 12692, 12858
2928, 3593, 3624, 3576, 790, 12851, 12858, 12689, 12750
2929, 1142, 1393, 3626, 3625, 4052, 12861, 12862, 12863
2930, 1393, 1128, 2239, 3626, 4047, 6949, 12865, 12861
2931, 3626, 2239, 981, 1482, 12865, 6959, 4342, 12867
2932, 3625, 3626, 1482, 1040, 12862, 12867, 4339, 12869
2933, 647, 3552, 3629, 3628, 12597, 12871, 12872, 12873
2934, 3552, 738, 2237, 3629, 12594, 6954, 12875, 12871
2935, 3629, 2237, 895, 3627, 12875, 6951, 12877, 12878
2936, 3628, 3629, 3627, 863, 12872, 12878, 12880, 12881
2937, 662, 3604, 3630, 1784, 12788, 12883, 12884, 5353
2938, 3604, 548, 3562, 3630, 12783, 12634, 12886, 12883
2939, 3630, 3562, 8, 521, 12886, 12631, 529, 12888
2940, 1784, 3630, 521, 520, 12884, 12888, 528, 5343
2941, 1309, 3566, 3633, 1868, 12645, 12891, 12892, 5639
2942, 3566, 1338, 3631, 3633, 12641, 12894, 12895, 12891
2943, 3633, 3631, 1346, 3632, 12895, 12897, 12898, 12899
2944, 1868, 3633, 3632, 1353, 12892, 12899, 12901, 5643
2945, 1192, 1468, 3636, 3635, 4284, 12903, 12904, 12905
2946, 1468, 1098, 3539, 3636, 4295, 12545, 12907, 12903
2947, 3636, 3539, 1204, 3634, 12907, 12542, 12909, 12910
2948, 3635, 3636, 3634, 1242, 12904, 12910, 12912, 12913
2949, 902, 3637, 3639, 3638, 12915, 12916, 12917, 12918
2950, 3637, 739, 1471, 3639, 12920, 4306, 12921, 12916
2951, 3639, 1471, 647, 3628, 12921, 4303, 12873, 12923
2952, 3638, 3639, 3628, 863, 12917, 12923, 12881, 12925
2953, 943, 3582, 3642, 3542, 12711, 12927, 12928, 12551
2954, 3582, 866, 3640, 3642, 12708, 12930, 12931, 12927
2955, 3642, 3640, 881, 3641, 12931, 12933, 12934, 12935
2956, 3542, 3642, 3641, 1012, 12928, 12935, 12937, 12555
2957, 1302, 1839, 3644, 1439, 5544, 12939, 12940, 4199
2958, 1839, 1283, 3163, 3644, 5539, 10737, 12942, 12939
2959, 3644, 3163, 1322, 3643, 12942, 10734, 12944, 12945
2960, 1439, 3644, 3643, 1310, 12940, 12945, 12947, 4202
2961, 1143, 3602, 3647, 3609, 12781, 12949, 12950, 12807
2962, 3602, 1091, 3645, 3647, 12778, 12952, 12953, 12949
2963, 3647, 3645, 880, 3646, 12953, 12955, 12956, 12957
2964, 3609, 3647, 3646, 988, 12950, 12957, 12959, 12800
2965, 1056, 3648, 3650, 1535, 12961, 12962, 12963, 4513
2966, 3648, 962, 3649, 3650, 12965, 12966, 12967, 12962
2967, 3650, 3649, 863, 3627, 12967, 12969, 12880, 12970
2968, 1535, 3650, 3627, 895, 12963, 12970, 12877, 4504
2969, 944, 3651, 3653, 3255, 12973, 12974, 12975, 11161
2970, 3651, 1014, 3652, 3653, 12977, 12978, 12979, 12974
2971, 3653, 3652, 1151, 1931, 12979, 12981, 5866, 12982
2972, 3255, 3653, 1931, 1085, 12975, 12982, 5861, 11165
2973, 710, 1782, 3655, 3654, 5348, 12985, 12986, 12987
2974, 1782, 518, 517, 3655, 5345, 525, 12989, 12985
2975, 3655, 517, 516, 2639, 12989, 524, 8515, 12991
2976, 3654, 3655, 2639, 554, 12986, 12991, 8512, 12993
2977, 1199, 3656, 3658, 1560, 12995, 12996, 12997, 4591
2978, 3656, 1119, 3574, 3658, 12999, 12679, 13000, 12996
2979, 3658, 3574, 1218, 3657, 13000, 12675, 13002, 13003
2980, 1560, 3658, 3657, 1235, 12997, 13003, 13005, 4596
2981, 879, 1715, 3659, 2502, 5118, 13007, 13008, 7953
2982, 1715, 975, 1418, 3659, 5115, 4132, 13010, 13007
2983, 3659, 1418, 929, 3218, 13010, 4127, 10993, 13012
2984, 2502, 3659, 3218, 814, 13008, 13012, 10990, 7947
2985, 629, 3551, 3662, 3661, 12591, 13015, 13016, 13017
2986, 3551, 560, 3660, 3662, 12587, 13019, 13020, 13015
2987, 3662, 3660, 5, 536, 13020, 13022, 544, 13023
2988, 3661, 3662, 536, 535, 13016, 13023, 543, 13025
2989, 957, 3663, 3665, 1921, 13027, 13028, 13029, 5831
2990, 3663, 1149, 2166, 3665, 13031, 6687, 13032, 13028
2991, 3665, 2166, 1147, 3664, 13032, 6684, 13034, 13035
2992, 1921, 3665, 3664, 1066, 13029, 13035, 13037, 5820
2993, 1234, 1450, 3668, 3572, 4224, 13039, 13040, 12673
2994, 1450, 1241, 3666, 3668, 4235, 13042, 13043, 13039
2995, 3668, 3666, 1274, 3667, 13043, 13045, 13046, 13047
2996, 3572, 3668, 3667, 1277, 13040, 13047, 13049, 12664
2997, 822, 3669, 3670, 1963, 13051, 13052, 13053, 5967
2998, 3669, 554, 2638, 3670, 13055, 8511, 13056, 13052
2999, 3670, 2638, 664, 1539, 13056, 8508, 4528, 13058
3000, 1963, 3670, 1539, 720, 13053, 13058, 4525, 5972
3001, 563, 3671, 3673, 1537, 13061, 13062, 13063, 4515
3002, 3671, 649, 3672, 3673, 13065, 13066, 13067, 13062
3003, 3673, 3672, 870, 1504, 13067, 13069, 4412, 13070
3004, 1537, 3673, 1504, 740, 13063, 13070, 4407, 4520
3005, 881, 1818, 3675, 3641, 5471, 13073, 13074, 12934
3006, 1818, 1041, 3674, 3675, 5467, 13076, 13077, 13073
3007, 3675, 3674, 1141, 3543, 13077, 13079, 12559, 13080
3008, 3641, 3675, 3543, 1012, 13074, 13080, 12556, 12937
3009, 1119, 3656, 3677, 3534, 12999, 13083, 13084, 12517
3010, 3656, 1199, 3676, 3677, 12995, 13086, 13087, 13083
3011, 3677, 3676, 942, 3596, 13087, 13089, 12760, 13090
3012, 3534, 3677, 3596, 1010, 13084, 13090, 12755, 12520
3013, 1204, 3504, 3680, 3634, 12390, 13093, 13094, 12909
3014, 3504, 1299, 3678, 3680, 12399, 13096, 13097, 13093
3015, 3680, 3678, 1273, 3679, 13097, 13099, 13100, 13101
3016, 3634, 3680, 3679, 1242, 13094, 13101, 13103, 12912
3017, 1010, 3598, 3683, 3535, 12758, 13105, 13106, 12521
3018, 3598, 865, 3681, 3683, 12767, 13108, 13109, 13105
3019, 3683, 3681, 714, 3682, 13109, 13111, 13112, 13113
3020, 3535, 3683, 3682, 873, 13106, 13113, 13115, 12511
3021, 1307, 3494, 3684, 2606, 12355, 13117, 13118, 8373
3022, 3494, 1347, 1998, 3684, 12352, 6092, 13120, 13117
3023, 3684, 1998, 1351, 3470, 13120, 6089, 12225, 13122
3024, 2606, 3684, 3470, 1337, 13118, 13122, 12221, 8376
3025, 1041, 1379, 3686, 3674, 4008, 13125, 13126, 13076
3026, 1379, 1195, 1447, 3686, 4005, 4226, 13128, 13125
3027, 3686, 1447, 1234, 3685, 13128, 4221, 13130, 13131
3028, 3674, 3686, 3685, 1141, 13126, 13131, 13133, 13079
3029, 1155, 3472, 3688, 3687, 12239, 13135, 13136, 13137
3030, 3472, 1230, 2834, 3688, 12236, 9297, 13139, 13135
3031, 3688, 2834, 1262, 3173, 13139, 9307, 10780, 13141
3032, 3687, 3688, 3173, 1290, 13136, 13141, 10789, 13143
3033, 663, 3489, 3689, 3589, 12335, 13145, 13146, 12729
3034, 3489, 629, 3661, 3689, 12331, 13017, 13148, 13145
3035, 3689, 3661, 535, 534, 13148, 13025, 542, 13150
3036, 3589, 3689, 534, 533, 13146, 13150, 541, 12734
3037, 732, 3690, 3694, 3693, 13153, 13154, 13155, 13156
3038, 3690, 792, 3691, 3694, 13158, 13159, 13160, 13154
3039, 3694, 3691, 630, 3692, 13160, 13162, 13163, 13164
3040, 3693, 3694, 3692, 711, 13155, 13164, 13166, 13167
3041, 988, 3646, 3696, 3695, 12959, 13169, 13170, 13171
3042, 3646, 880, 1480, 3696, 12956, 4334, 13173, 13169
3043, 3696, 1480, 864, 3491, 13173, 4329, 12343, 13175
3044, 3695, 3696, 3491, 716, 13170, 13175, 12340, 13177
3045, 739, 3637, 3699, 1490, 12920, 13179, 13180, 4365
3046, 3637, 902, 3697, 3699, 12915, 13182, 13183, 13179
3047, 3699, 3697, 1015, 3698, 13183, 13185, 13186, 13187
3048, 1490, 3699, 3698, 810, 13180, 13187, 13189, 4368
3049, 952, 2494, 3700, 2459, 7922, 13191, 13192, 7791
3050, 2494, 1174, 1766, 3700, 7917, 5294, 13194, 13191
3051, 3700, 1766, 1108, 3482, 13194, 5291, 12309, 13196
3052, 2459, 3700, 3482, 1080, 13192, 13196, 12305, 7794
3053, 944, 3701, 3703, 3651, 13199, 13200, 13201, 12973
3054, 3701, 809, 1505, 3703, 13203, 4418, 13204, 13200
3055, 3703, 1505, 891, 3702, 13204, 4415, 13206, 13207
3056, 3651, 3703, 3702, 1014, 13201, 13207, 13209, 12977
3057, 888, 1385, 3706, 3705, 4028, 13211, 13212, 13213
3058, 1385, 872, 1961, 3706, 4025, 5956, 13215, 13211
3059, 3706, 1961, 893, 3704, 13215, 5965, 13217, 13218
3060, 3705, 3706, 3704, 1011, 13212, 13218, 13220, 13221
3061, 709, 3587, 3709, 3708, 12716, 13223, 13224, 13225
3062, 3587, 631, 3707, 3709, 12727, 13227, 13228, 13223
3063, 3709, 3707, 501, 500, 13228, 13230, 508, 13231
3064, 3708, 3709, 500, 6, 13224, 13231, 507, 13233
3065, 1027, 1405, 3711, 3710, 4092, 13235, 13236, 13237
3066, 1405, 1104, 1411, 3711, 4089, 4098, 13239, 13235
3067, 3711, 1411, 1227, 1629, 13239, 4109, 4828, 13241
3068, 3710, 3711, 1629, 1190, 13236, 13241, 4825, 13243
3069, 712, 3577, 3714, 3713, 12696, 13245, 13246, 13247
3070, 3577, 632, 3712, 3714, 12693, 13249, 13250, 13245
3071, 3714, 3712, 490, 489, 13250, 13252, 497, 13253
3072, 3713, 3714, 489, 488, 13246, 13253, 496, 13255
3073, 1236, 3715, 3718, 3717, 13257, 13258, 13259, 13260
3074, 3715, 1142, 3716, 3718, 13262, 13263, 13264, 13258
3075, 3718, 3716, 1091, 3601, 13264, 13266, 12777, 13267
3076, 3717, 3718, 3601, 1278, 13259, 13267, 12774, 13269
3077, 554, 3669, 3721, 3654, 13055, 13271, 13272, 12993
3078, 3669, 822, 3719, 3721, 13051, 13274, 13275, 13271
3079, 3721, 3719, 721, 3720, 13275, 13277, 13278, 13279
3080, 3654, 3721, 3720, 710, 13272, 13279, 13281, 12987
3081, 797, 3722, 3725, 3614, 13283, 13284, 13285, 12823
3082, 3722, 1022, 3723, 3725, 13287, 13288, 13289, 13284
3083, 3725, 3723, 1025, 3724, 13289, 13291, 13292, 13293
3084, 3614, 3725, 3724, 877, 13285, 13293, 13295, 12812
3085, 1089, 3726, 3727, 2205, 13297, 13298, 13299, 6825
3086, 3726, 902, 3638, 3727, 13301, 12918, 13302, 13298
3087, 3727, 3638, 863, 3649, 13302, 12925, 12969, 13304
3088, 2205, 3727, 3649, 962, 13299, 13304, 12966, 6814
3089, 1200, 1513, 3730, 3729, 4442, 13307, 13308, 13309
3090, 1513, 1116, 1865, 3730, 4437, 5634, 13311, 13307
3091, 3730, 1865, 1198, 3728, 13311, 5631, 13313, 13314
3092, 3729, 3730, 3728, 1144, 13308, 13314, 13316, 13317
3093, 740, 1506, 3731, 1538, 4410, 13319, 13320, 4521
3094, 1506, 809, 3701, 3731, 4419, 13203, 13322, 13319
3095, 3731, 3701, 944, 1964, 13322, 13199, 5976, 13324
3096, 1538, 3731, 1964, 720, 13320, 13324, 5973, 4524
3097, 1198, 1913, 3734, 3728, 5801, 13327, 13328, 13313
3098, 1913, 1054, 3732, 3734, 5798, 13330, 13331, 13327
3099, 3734, 3732, 973, 3733, 13331, 13333, 13334, 13335
3100, 3728, 3734, 3733, 1144, 13328, 13335, 13337, 13316
3101, 711, 3692, 3737, 3736, 13166, 13339, 13340, 13341
3102, 3692, 630, 3735, 3737, 13163, 13343, 13344, 13339
3103, 3737, 3735, 505, 504, 13344, 13346, 512, 13347
3104, 3736, 3737, 504, 503, 13340, 13347, 511, 13349
3105, 888, 3738, 3741, 3740, 13351, 13352, 13353, 13354
3106, 3738, 1084, 3739, 3741, 13356, 13357, 13358, 13352
3107, 3741, 3739, 1144, 3733, 13358, 13360, 13337, 13361
3108, 3740, 3741, 3733, 973, 13353, 13361, 13334, 13363
3109, 797, 3616, 3743, 3722, 12829, 13365, 13366, 13283
3110, 3616, 945, 1645, 3743, 12825, 4866, 13368, 13365
3111, 3743, 1645, 972, 3742, 13368, 4877, 13370, 13371
3112, 3722, 3743, 3742, 1022, 13366, 13371, 13373, 13287
3113, 1142, 3625, 3744, 3716, 12863, 13375, 13376, 13263
3114, 3625, 1040, 1481, 3744, 12869, 4338, 13378, 13375
3115, 3744, 1481, 880, 3645, 13378, 4335, 12955, 13380
3116, 3716, 3744, 3645, 1091, 13376, 13380, 12952, 13266
3117, 1217, 1374, 3746, 3745, 3990, 13383, 13384, 13385
3118, 1374, 1167, 2403, 3746, 3985, 7581, 13387, 13383
3119, 3746, 2403, 1236, 3717, 13387, 7578, 13260, 13389
3120, 3745, 3746, 3717, 1278, 13384, 13389, 13269, 13391
3121, 1338, 3499, 3749, 3748, 12381, 13393, 13394, 13395
3122, 3499, 1324, 1723, 3749, 12378, 5146, 13397, 13393
3123, 3749, 1723, 1326, 3747, 13397, 5143, 13399, 13400
3124, 3748, 3749, 3747, 1339, 13394, 13400, 13402, 13403
3125, 957, 1920, 3750, 2975, 5830, 13405, 13406, 9887
3126, 1920, 807, 2436, 3750, 5827, 7699, 13408, 13405
3127, 3750, 2436, 904, 1399, 13408, 7696, 4072, 13410
3128, 2975, 3750, 1399, 1049, 13406, 13410, 4069, 9892
3129, 888, 3740, 3752, 3558, 13354, 13413, 13414, 12613
3130, 3740, 973, 3751, 3752, 13363, 13416, 13417, 13413
3131, 3752, 3751, 1021, 3594, 13417, 13419, 12744, 13420
3132, 3558, 3752, 3594, 946, 13414, 13420, 12753, 12617
3133, 888, 3705, 3755, 3738, 13213, 13423, 13424, 13351
3134, 3705, 1011, 3753, 3755, 13221, 13426, 13427, 13423
3135, 3755, 3753, 1152, 3754, 13427, 13429, 13430, 13431
3136, 3738, 3755, 3754, 1084, 13424, 13431, 13433, 13356
3137, 1336, 3756, 3759, 2430, 13435, 13436, 13437, 7677
3138, 3756, 1357, 3757, 3759, 13439, 13440, 13441, 13436
3139, 3759, 3757, 1346, 3758, 13441, 13443, 13444, 13445
3140, 2430, 3759, 3758, 1350, 13437, 13445, 13447, 7666
3141, 1034, 3544, 3761, 3760, 12563, 13449, 13450, 13451
3142, 3544, 1141, 3685, 3761, 12560, 13133, 13453, 13449
3143, 3761, 3685, 1234, 3571, 13453, 13130, 12672, 13455
3144, 3760, 3761, 3571, 1191, 13450, 13455, 12669, 13457
3145, 893, 1960, 3764, 3763, 5964, 13459, 13460, 13461
3146, 1960, 810, 3698, 3764, 5961, 13189, 13463, 13459
3147, 3764, 3698, 1015, 3762, 13463, 13186, 13465, 13466
3148, 3763, 3764, 3762, 970, 13460, 13466, 13468, 13469
3149, 722, 3765, 3768, 1492, 13471, 13472, 13473, 4373
3150, 3765, 653, 3766, 3768, 13475, 13476, 13477, 13472
3151, 3768, 3766, 633, 3767, 13477, 13479, 13480, 13481
3152, 1492, 3768, 3767, 713, 13473, 13481, 13483, 4363
3153, 1028, 1613, 3769, 2749, 4770, 13485, 13486, 8975
3154, 1613, 1121, 1415, 3769, 4767, 4124, 13488, 13485
3155, 3769, 1415, 1069, 2302, 13488, 4121, 7205, 13490
3156, 2749, 3769, 2302, 951, 13486, 13490, 7202, 8969
3157, 1017, 1819, 3772, 3771, 5475, 13493, 13494, 13495
3158, 1819, 881, 3640, 3772, 5472, 12933, 13497, 13493
3159, 3772, 3640, 866, 3770, 13497, 12930, 13499, 13500
3160, 3771, 3772, 3770, 721, 13494, 13500, 13502, 13503
3161, 664, 2637, 3774, 1540, 8507, 13505, 13506, 4529
3162, 2637, 7, 506, 3774, 8503, 514, 13508, 13505
3163, 3774, 506, 505, 3773, 13508, 513, 13510, 13511
3164, 1540, 3774, 3773, 563, 13506, 13511, 13513, 4518
3165, 1014, 3702, 3776, 3775, 13209, 13515, 13516, 13517
3166, 3702, 891, 1496, 3776, 13206, 4388, 13519, 13515
3167, 3776, 1496, 964, 1460, 13519, 4385, 4270, 13521
3168, 3775, 3776, 1460, 1090, 13516, 13521, 4265, 13523
3169, 988, 3777, 3778, 3608, 13525, 13526, 13527, 12797
3170, 3777, 942, 3676, 3778, 13529, 13089, 13530, 13526
3171, 3778, 3676, 1199, 1562, 13530, 13086, 4594, 13532
3172, 3608, 3778, 1562, 1032, 13527, 13532, 4603, 12802
3173, 948, 1494, 3781, 3780, 4380, 13535, 13536, 13537
3174, 1494, 870, 3672, 3781, 4375, 13069, 13539, 13535
3175, 3781, 3672, 649, 3779, 13539, 13066, 13541, 13542
3176, 3780, 3781, 3779, 871, 13536, 13542, 13544, 13545
3177, 713, 3767, 3783, 1473, 13483, 13547, 13548, 4311
3178, 3767, 633, 3782, 3783, 13480, 13550, 13551, 13547
3179, 3783, 3782, 5, 3660, 13551, 13553, 13022, 13554
3180, 1473, 3783, 3660, 560, 13548, 13554, 13019, 4300
3181, 901, 3618, 3785, 3784, 12840, 13557, 13558, 13559
3182, 3618, 1086, 1634, 3785, 12835, 4844, 13561, 13557
3183, 3785, 1634, 1087, 1430, 13561, 4841, 4160, 13563
3184, 3784, 3785, 1430, 974, 13558, 13563, 4171, 13565
3185, 1011, 3704, 3787, 3786, 13220, 13567, 13568, 13569
3186, 3704, 893, 3763, 3787, 13217, 13461, 13571, 13567
3187, 3787, 3763, 970, 1657, 13571, 13469, 4915, 13573
3188, 3786, 3787, 1657, 1053, 13568, 13573, 4911, 13575
3189, 871, 3779, 3790, 3789, 13544, 13577, 13578, 13579
3190, 3779, 649, 3788, 3790, 13541, 13581, 13582, 13577
3191, 3790, 3788, 630, 3691, 13582, 13584, 13162, 13585
3192, 3789, 3790, 3691, 792, 13578, 13585, 13159, 13587
3193, 636, 3791, 3793, 3586, 13589, 13590, 13591, 12723
3194, 3791, 553, 3792, 3793, 13593, 13594, 13595, 13590
3195, 3793, 3792, 501, 3707, 13595, 13597, 13230, 13598
3196, 3586, 3793, 3707, 631, 13591, 13598, 13227, 12726
3197, 1338, 3748, 3795, 3631, 13395, 13601, 13602, 12894
3198, 3748, 1339, 3794, 3795, 13403, 13604, 13605, 13601
3199, 3795, 3794, 1350, 3758, 13605, 13607, 13447, 13608
3200, 3631, 3795, 3758, 1346, 13602, 13608, 13444, 12897
3201, 490, 3796, 3798, 491, 13611, 13612, 13613, 498
3202, 3796, 547, 3797, 3798, 13615, 13616, 13617, 13612
3203, 3798, 3797, 709, 3708, 13617, 13619, 13225, 13620
3204, 491, 3798, 3708, 6, 13613, 13620, 13233, 499
3205, 637, 3799, 3800, 3623, 13623, 13624, 13625, 12854
3206, 3799, 547, 3796, 3800, 13627, 13615, 13628, 13624
3207, 3800, 3796, 490, 3712, 13628, 13611, 13252, 13630
3208, 3623, 3800, 3712, 632, 13625, 13630, 13249, 12857
3209, 501, 3792, 3802, 502, 13597, 13633, 13634, 509
3210, 3792, 553, 3801, 3802, 13594, 13636, 13637, 13633
3211, 3802, 3801, 711, 3736, 13637, 13639, 13341, 13640
3212, 502, 3802, 3736, 503, 13634, 13640, 13349, 510
3213, 913, 3549, 3805, 1643, 12575, 13643, 13644, 4869
3214, 3549, 1019, 3803, 3805, 12585, 13646, 13647, 13643
3215, 3805, 3803, 1148, 3804, 13647, 13649, 13650, 13651
3216, 1643, 3805, 3804, 1083, 13644, 13651, 13653, 4872
3217, 1016, 1659, 3806, 1858, 4923, 13655, 13656, 5609
3218, 1659, 1018, 2250, 3806, 4920, 6995, 13658, 13655
3219, 3806, 2250, 815, 3270, 13658, 6991, 11233, 13660
3220, 1858, 3806, 3270, 903, 13656, 13660, 11230, 5601
3221, 486, 3807, 3809, 487, 13663, 13664, 13665, 494
3222, 3807, 567, 3808, 3809, 13667, 13668, 13669, 13664
3223, 3809, 3808, 712, 3713, 13669, 13671, 13247, 13672
3224, 487, 3809, 3713, 488, 13665, 13672, 13255, 495
3225, 721, 3719, 3810, 3771, 13277, 13675, 13676, 13503
3226, 3719, 822, 1966, 3810, 13274, 5970, 13678, 13675
3227, 3810, 1966, 884, 1786, 13678, 5981, 5360, 13680
3228, 3771, 3810, 1786, 1017, 13676, 13680, 5355, 13495
3229, 1333, 3493, 3811, 1869, 12349, 13683, 13684, 5646
3230, 3493, 1325, 2600, 3811, 12345, 8351, 13686, 13683
3231, 3811, 2600, 1323, 1712, 13686, 8348, 5107, 13688
3232, 1869, 3811, 1712, 1340, 13684, 13688, 5104, 5649
3233, 1321, 1637, 3812, 1703, 4852, 13691, 13692, 5075
3234, 1637, 1300, 2914, 3812, 4847, 9621, 13694, 13691
3235, 3812, 2914, 1273, 3678, 13694, 9618, 13099, 13696
3236, 1703, 3812, 3678, 1299, 13692, 13696, 13096, 5078
3237, 5, 3782, 3814, 485, 13553, 13699, 13700, 492
3238, 3782, 633, 3813, 3814, 13550, 13702, 13703, 13699
3239, 3814, 3813, 567, 3807, 13703, 13705, 13667, 13706
3240, 485, 3814, 3807, 486, 13700, 13706, 13663, 493
3241, 1326, 1600, 3816, 3747, 4718, 13709, 13710, 13399
3242, 1600, 1288, 1520, 3816, 4727, 4466, 13712, 13709
3243, 3816, 1520, 1306, 3815, 13712, 4463, 13714, 13715
3244, 3747, 3816, 3815, 1339, 13710, 13715, 13717, 13402
3245, 1336, 1647, 3818, 3756, 4884, 13719, 13720, 13435
3246, 1647, 1344, 1999, 3818, 4879, 6087, 13722, 13719
3247, 3818, 1999, 1356, 3817, 13722, 6095, 13724, 13725
3248, 3756, 3818, 3817, 1357, 13720, 13725, 13727, 13439
3249, 1240, 3819, 3821, 1369, 13729, 13730, 13731, 3969
3250, 3819, 1148, 3820, 3821, 13733, 13734, 13735, 13730
3251, 3821, 3820, 1027, 3710, 13735, 13737, 13237, 13738
3252, 1369, 3821, 3710, 1190, 13731, 13738, 13243, 3974
3253, 636, 3612, 3824, 3823, 12818, 13741, 13742, 13743
3254, 3612, 862, 3822, 3824, 12815, 13745, 13746, 13741
3255, 3824, 3822, 947, 3484, 13746, 13748, 12320, 13749
3256, 3823, 3824, 3484, 732, 13742, 13749, 12315, 13751
3257, 1240, 3825, 3827, 3819, 13753, 13754, 13755, 13729
3258, 3825, 1197, 3826, 3827, 13757, 13758, 13759, 13754
3259, 3827, 3826, 1083, 3804, 13759, 13761, 13653, 13762
3260, 3819, 3827, 3804, 1148, 13755, 13762, 13650, 13733
3261, 505, 3735, 3828, 3773, 13346, 13765, 13766, 13510
3262, 3735, 630, 3788, 3828, 13343, 13584, 13768, 13765
3263, 3828, 3788, 649, 3671, 13768, 13581, 13065, 13770
3264, 3773, 3828, 3671, 563, 13766, 13770, 13061, 13513
3265, 1312, 2427, 3830, 3829, 7668, 13773, 13774, 13775
3266, 2427, 1350, 3794, 3830, 7663, 13607, 13777, 13773
3267, 3830, 3794, 1339, 3815, 13777, 13604, 13717, 13779
3268, 3829, 3830, 3815, 1306, 13774, 13779, 13714, 13781
3269, 1304, 3831, 3833, 1372, 13783, 13784, 13785, 3983
3270, 3831, 1279, 3832, 3833, 13787, 13788, 13789, 13784
3271, 3833, 3832, 1197, 3825, 13789, 13791, 13757, 13792
3272, 1372, 3833, 3825, 1240, 13785, 13792, 13753, 3972
3273, 877, 3834, 3836, 3611, 13795, 13796, 13797, 12809
3274, 3834, 1020, 3835, 3836, 13799, 13800, 13801, 13796
3275, 3836, 3835, 947, 3822, 13801, 13803, 13748, 13804
3276, 3611, 3836, 3822, 862, 13797, 13804, 13745, 12814
3277, 1020, 3837, 3839, 3835, 13807, 13808, 13809, 13800
3278, 3837, 1088, 3838, 3839, 13811, 13812, 13813, 13808
3279, 3839, 3838, 1013, 3485, 13813, 13815, 12324, 13816
3280, 3835, 3839, 3485, 947, 13809, 13816, 12321, 13803
3281, 1148, 3803, 3840, 3820, 13649, 13819, 13820, 13734
3282, 3803, 1019, 3548, 3840, 13646, 12584, 13822, 13819
3283, 3840, 3548, 876, 1406, 13822, 12581, 4082, 13824
3284, 3820, 3840, 1406, 1027, 13820, 13824, 4093, 13737
3285, 902, 3726, 3842, 3697, 13301, 13827, 13828, 13182
3286, 3726, 1089, 2204, 3842, 13297, 6824, 13830, 13827
3287, 3842, 2204, 894, 3841, 13830, 6821, 13832, 13833
3288, 3697, 3842, 3841, 1015, 13828, 13833, 13835, 13185
3289, 972, 1644, 3845, 3844, 4876, 13837, 13838, 13839
3290, 1644, 1083, 3826, 3845, 4873, 13761, 13841, 13837
3291, 3845, 3826, 1197, 3843, 13841, 13758, 13843, 13844
3292, 3844, 3845, 3843, 1093, 13838, 13844, 13846, 13847
3293, 1317, 1762, 3847, 1798, 5269, 13849, 13850, 5402
3294, 1762, 1330, 3846, 3847, 5279, 13852, 13853, 13849
3295, 3847, 3846, 1279, 3831, 13853, 13855, 13787, 13856
3296, 1798, 3847, 3831, 1304, 13850, 13856, 13783, 5405
3297, 1192, 3848, 3851, 1465, 13859, 13860, 13861, 4281
3298, 3848, 1243, 3849, 3851, 13863, 13864, 13865, 13860
3299, 3851, 3849, 1201, 3850, 13865, 13867, 13868, 13869
3300, 1465, 3851, 3850, 1095, 13861, 13869, 13871, 4286
3301, 1296, 1711, 3852, 1774, 5101, 13873, 13874, 5319
3302, 1711, 1253, 1542, 3852, 5097, 4536, 13876, 13873
3303, 3852, 1542, 1235, 3657, 13876, 4531, 13005, 13878
3304, 1774, 3852, 3657, 1218, 13874, 13878, 13002, 5322
3305, 1310, 3643, 3853, 1760, 12947, 13881, 13882, 5271
3306, 3643, 1322, 2118, 3853, 12944, 6512, 13884, 13881
3307, 3853, 2118, 1345, 1805, 13884, 6519, 5427, 13886
3308, 1760, 3853, 1805, 1354, 13882, 13886, 5423, 5274
3309, 1152, 1855, 3854, 3754, 5588, 13889, 13890, 13430
3310, 1855, 1200, 3729, 3854, 5597, 13309, 13892, 13889
3311, 3854, 3729, 1144, 3739, 13892, 13317, 13360, 13894
3312, 3754, 3854, 3739, 1084, 13890, 13894, 13357, 13433
3313, 1020, 3855, 3857, 3837, 13897, 13898, 13899, 13807
3314, 3855, 1095, 3850, 3857, 13901, 13871, 13902, 13898
3315, 3857, 3850, 1201, 3856, 13902, 13868, 13904, 13905
3316, 3837, 3857, 3856, 1088, 13899, 13905, 13907, 13811
3317, 1086, 3620, 3859, 1635, 12838, 13909, 13910, 4845
3318, 3620, 1013, 3838, 3859, 12847, 13815, 13912, 13909
3319, 3859, 3838, 1088, 3858, 13912, 13812, 13914, 13915
3320, 1635, 3859, 3858, 1150, 13910, 13915, 13917, 4834
3321, 1189, 3860, 3862, 3518, 13919, 13920, 13921, 12449
3322, 3860, 1093, 3843, 3862, 13923, 13846, 13924, 13920
3323, 3862, 3843, 1197, 3861, 13924, 13843, 13926, 13927
3324, 3518, 3862, 3861, 1237, 13921, 13927, 13929, 12454
3325, 1357, 3817, 3863, 3757, 13727, 13931, 13932, 13440
3326, 3817, 1356, 1735, 3863, 13724, 5186, 13934, 13931
3327, 3863, 1735, 1353, 3632, 13934, 5181, 12901, 13936
3328, 3757, 3863, 3632, 1346, 13932, 13936, 12898, 13443
3329, 970, 3762, 3864, 1658, 13468, 13939, 13940, 4916
3330, 3762, 1015, 3841, 3864, 13465, 13835, 13942, 13939
3331, 3864, 3841, 894, 2251, 13942, 13832, 6999, 13944
3332, 1658, 3864, 2251, 1018, 13940, 13944, 6996, 4919
3333, 1014, 3775, 3865, 3652, 13517, 13947, 13948, 12978
3334, 3775, 1090, 1845, 3865, 13523, 5564, 13950, 13947
3335, 3865, 1845, 971, 1932, 13950, 5561, 5870, 13952
3336, 3652, 3865, 1932, 1151, 13948, 13952, 5867, 12981
3337, 813, 3619, 3868, 3867, 12844, 13955, 13956, 13957
3338, 3619, 901, 3866, 3868, 12841, 13959, 13960, 13955
3339, 3868, 3866, 948, 3780, 13960, 13962, 13537, 13963
3340, 3867, 3868, 3780, 871, 13956, 13963, 13545, 13965
3341, 871, 3789, 3869, 3867, 13579, 13967, 13968, 13965
3342, 3789, 792, 3690, 3869, 13587, 13158, 13970, 13967
3343, 3869, 3690, 732, 3487, 13970, 13153, 12318, 13972
3344, 3867, 3869, 3487, 813, 13968, 13972, 12329, 13957
3345, 1243, 3870, 3872, 3849, 13975, 13976, 13977, 13864
3346, 3870, 1275, 1591, 3872, 13979, 4698, 13980, 13976
3347, 3872, 1591, 1169, 3871, 13980, 4695, 13982, 13983
3348, 3849, 3872, 3871, 1201, 13977, 13983, 13985, 13867
3349, 1088, 3856, 3873, 3858, 13907, 13987, 13988, 13914
3350, 3856, 1201, 3871, 3873, 13904, 13985, 13990, 13987
3351, 3873, 3871, 1169, 2455, 13990, 13982, 7777, 13992
3352, 3858, 3873, 2455, 1150, 13988, 13992, 7773, 13917
3353, 1308, 2152, 3874, 1457, 6637, 13995, 13996, 4257
3354, 2152, 1286, 2870, 3874, 6633, 9429, 13998, 13995
3355, 3874, 2870, 1316, 1442, 13998, 9439, 4210, 14000
3356, 1457, 3874, 1442, 1334, 13996, 14000, 4205, 4260
3357, 964, 1495, 3875, 1618, 4384, 14003, 14004, 4787
3358, 1495, 948, 3866, 3875, 4381, 13962, 14006, 14003
3359, 3875, 3866, 901, 3784, 14006, 13959, 13559, 14008
3360, 1618, 3875, 3784, 974, 14004, 14008, 13565, 4779
3361, 865, 3506, 3877, 3681, 12408, 14011, 14012, 13108
3362, 3506, 661, 3564, 3877, 12405, 12629, 14014, 14011
3363, 3877, 3564, 708, 3876, 14014, 12639, 14016, 14017
3364, 3681, 3877, 3876, 714, 14012, 14017, 14019, 13111
3365, 1233, 3555, 3878, 3600, 12610, 14021, 14022, 12769
3366, 3555, 1276, 1359, 3878, 12607, 3942, 14024, 14021
3367, 3878, 1359, 1217, 3745, 14024, 3937, 13385, 14026
3368, 3600, 3878, 3745, 1278, 14022, 14026, 13391, 12773
3369, 1292, 3567, 3879, 1924, 12651, 14029, 14030, 5839
3370, 3567, 1246, 1773, 3879, 12648, 5316, 14032, 14029
3371, 3879, 1773, 1158, 1547, 14032, 5311, 4554, 14034
3372, 1924, 3879, 1547, 1239, 14030, 14034, 4551, 5842
3373, 1197, 3832, 3881, 3861, 13791, 14037, 14038, 13926
3374, 3832, 1279, 3880, 3881, 13788, 14040, 14041, 14037
3375, 3881, 3880, 1305, 3519, 14041, 14043, 12458, 14044
3376, 3861, 3881, 3519, 1237, 14038, 14044, 12455, 13929
3377, 1021, 3882, 3884, 3592, 14047, 14048, 14049, 12741
3378, 3882, 876, 3547, 3884, 14051, 12580, 14052, 14048
3379, 3884, 3547, 799, 3883, 14052, 12577, 14054, 14055
3380, 3592, 3884, 3883, 867, 14049, 14055, 14057, 12746
3381, 866, 3605, 3885, 3770, 12792, 14059, 14060, 13499
3382, 3605, 662, 1783, 3885, 12789, 5352, 14062, 14059
3383, 3885, 1783, 710, 3720, 14062, 5349, 13281, 14064
3384, 3770, 3885, 3720, 721, 14060, 14064, 13278, 13502
3385, 1011, 3786, 3886, 3753, 13569, 14067, 14068, 13426
3386, 3786, 1053, 1584, 3886, 13575, 4674, 14070, 14067
3387, 3886, 1584, 1120, 1853, 14070, 4669, 5590, 14072
3388, 3753, 3886, 1853, 1152, 14068, 14072, 5585, 13429
3389, 1279, 3846, 3888, 3880, 13855, 14075, 14076, 14040
3390, 3846, 1330, 3887, 3888, 13852, 14078, 14079, 14075
3391, 3888, 3887, 1341, 3516, 14079, 14081, 12445, 14082
3392, 3880, 3888, 3516, 1305, 14076, 14082, 12442, 14043
3393, 1102, 3889, 3890, 2413, 14085, 14086, 14087, 7619
3394, 3889, 1274, 3666, 3890, 14089, 13045, 14090, 14086
3395, 3890, 3666, 1241, 1755, 14090, 13042, 5243, 14092
3396, 2413, 3890, 1755, 1170, 14087, 14092, 5253, 7611
3397, 1189, 3540, 3892, 3860, 12549, 14095, 14096, 13919
3398, 3540, 1098, 1467, 3892, 12546, 4294, 14098, 14095
3399, 3892, 1467, 1025, 3891, 14098, 4291, 14100, 14101
3400, 3860, 3892, 3891, 1093, 14096, 14101, 14103, 13923
3401, 709, 3797, 3895, 3894, 13619, 14105, 14106, 14107
3402, 3797, 547, 3799, 3895, 13616, 13627, 14109, 14105
3403, 3895, 3799, 637, 3893, 14109, 13623, 14111, 14112
3404, 3894, 3895, 3893, 794, 14106, 14112, 14114, 14115
3405, 633, 3766, 3898, 3813, 13479, 14117, 14118, 13702
3406, 3766, 653, 3896, 3898, 13476, 14120, 14121, 14117
3407, 3898, 3896, 793, 3897, 14121, 14123, 14124, 14125
3408, 3813, 3898, 3897, 567, 14118, 14125, 14127, 13705
3409, 791, 3584, 3899, 3466, 12718, 14129, 14130, 12206
3410, 3584, 709, 3894, 3899, 12713, 14107, 14132, 14129
3411, 3899, 3894, 794, 1388, 14132, 14115, 4036, 14134
3412, 3466, 3899, 1388, 868, 14130, 14134, 4031, 12209
3413, 1348, 1581, 3900, 1567, 4666, 14137, 14138, 4619
3414, 1581, 1358, 1683, 3900, 4663, 5007, 14140, 14137
3415, 3900, 1683, 1355, 1727, 14140, 5004, 5159, 14142
3416, 1567, 3900, 1727, 1335, 14138, 14142, 5156, 4608
3417, 1020, 3834, 3901, 3855, 13799, 14145, 14146, 13897
3418, 3834, 877, 3724, 3901, 13795, 13295, 14148, 14145
3419, 3901, 3724, 1025, 1466, 14148, 13292, 4290, 14150
3420, 3855, 3901, 1466, 1095, 14146, 14150, 4287, 13901
3421, 1025, 3723, 3902, 3891, 13291, 14153, 14154, 14100
3422, 3723, 1022, 3742, 3902, 13288, 13373, 14156, 14153
3423, 3902, 3742, 972, 3844, 14156, 13370, 13839, 14158
3424, 3891, 3902, 3844, 1093, 14154, 14158, 13847, 14103
3425, 876, 3882, 3903, 1403, 14051, 14161, 14162, 4079
3426, 3882, 1021, 3751, 3903, 14047, 13419, 14164, 14161
3427, 3903, 3751, 973, 3732, 14164, 13416, 13333, 14166
3428, 1403, 3903, 3732, 1054, 14162, 14166, 13330, 4084
3429, 567, 3897, 3904, 3808, 14127, 14169, 14170, 13668
3430, 3897, 793, 1383, 3904, 14124, 4020, 14172, 14169
3431, 3904, 1383, 869, 3578, 14172, 4015, 12687, 14174
3432, 3808, 3904, 3578, 712, 14170, 14174, 12697, 13671
3433, 722, 1959, 3905, 3765, 5958, 14177, 14178, 13471
3434, 1959, 872, 1384, 3905, 5953, 4024, 14180, 14177
3435, 3905, 1384, 793, 3896, 14180, 4021, 14123, 14182
3436, 3765, 3905, 3896, 653, 14178, 14182, 14120, 13475
3437, 1191, 3524, 3906, 3760, 12478, 14185, 14186, 13457
3438, 3524, 1099, 1486, 3906, 12473, 4354, 14188, 14185
3439, 3906, 1486, 1094, 3531, 14188, 4351, 12507, 14190
3440, 3760, 3906, 3531, 1034, 14186, 14190, 12504, 13451
3441, 867, 3883, 3907, 3622, 14057, 14193, 14194, 12849
3442, 3883, 799, 1389, 3907, 14054, 4040, 14196, 14193
3443, 3907, 1389, 794, 3893, 14196, 4037, 14114, 14198
3444, 3622, 3907, 3893, 637, 14194, 14198, 14111, 12853
3445, 1354, 1582, 3908, 1761, 4656, 14201, 14202, 5275
3446, 1582, 1348, 1566, 3908, 4667, 4618, 14204, 14201
3447, 3908, 1566, 1341, 3887, 14204, 4615, 14081, 14206
3448, 1761, 3908, 3887, 1330, 14202, 14206, 14078, 5278
3449, 1102, 1916, 3910, 3889, 5815, 14209, 14210, 14085
3450, 1916, 1216, 2708, 3910, 5812, 8806, 14212, 14209
3451, 3910, 2708, 1327, 3909, 14212, 8801, 14214, 14215
3452, 3889, 3910, 3909, 1274, 14210, 14215, 14217, 14089
3453, 1227, 1410, 3911, 1630, 4108, 14219, 14220, 4829
3454, 1410, 1238, 3513, 3911, 4105, 12431, 14222, 14219
3455, 3911, 3513, 1171, 2060, 14222, 12427, 6310, 14224
3456, 1630, 3911, 2060, 1211, 14220, 14224, 6319, 4821
3457, 1255, 3570, 3912, 3522, 12666, 14227, 14228, 12468
3458, 3570, 1277, 3667, 3912, 12661, 13049, 14230, 14227
3459, 3912, 3667, 1274, 3909, 14230, 13046, 14217, 14232
3460, 3522, 3912, 3909, 1327, 14228, 14232, 14214, 12471
3461, 708, 3563, 3914, 3876, 12638, 14235, 14236, 14016
3462, 3563, 548, 3606, 3914, 12635, 12786, 14238, 14235
3463, 3914, 3606, 789, 3913, 14238, 12795, 14240, 14241
3464, 3876, 3914, 3913, 714, 14236, 14241, 14243, 14019
3465, 663, 3590, 3916, 3490, 12732, 14245, 14246, 12336
3466, 3590, 550, 3508, 3916, 12739, 12403, 14248, 14245
3467, 3916, 3508, 788, 3915, 14248, 12413, 14250, 14251
3468, 3490, 3916, 3915, 716, 14246, 14251, 14253, 12339
3469, 636, 3823, 3917, 3791, 13743, 14255, 14256, 13589
3470, 3823, 732, 3693, 3917, 13751, 13156, 14258, 14255
3471, 3917, 3693, 711, 3801, 14258, 13167, 13639, 14260
3472, 3791, 3917, 3801, 553, 14256, 14260, 13636, 13593
3473, 873, 3682, 3918, 1691, 13115, 14263, 14264, 5035
3474, 3682, 714, 3913, 3918, 13112, 14243, 14266, 14263
3475, 3918, 3913, 789, 3580, 14266, 14240, 12703, 14268
3476, 1691, 3918, 3580, 986, 14264, 14268, 12699, 5027
3477, 942, 3777, 3919, 3597, 13529, 14271, 14272, 12761
3478, 3777, 988, 3695, 3919, 13525, 13171, 14274, 14271
3479, 3919, 3695, 716, 3915, 14274, 13177, 14253, 14276
3480, 3597, 3919, 3915, 788, 14272, 14276, 14250, 12764
3481, 1149, 3663, 3920, 1378, 13031, 14279, 14280, 3999
3482, 3663, 957, 2976, 3920, 13027, 9890, 14282, 14279
3483, 3920, 2976, 1117, 1448, 14282, 9897, 4230, 14284
3484, 1378, 3920, 1448, 1195, 14280, 14284, 4227, 4004
3485, 979, 2202, 3921, 1824, 6816, 14287, 14288, 5493
3486, 2202, 962, 3648, 3921, 6811, 12965, 14290, 14287
3487, 3921, 3648, 1056, 2044, 14290, 12961, 6257, 14292
3488, 1824, 3921, 2044, 977, 14288, 14292, 6263, 5482
3489, 892, 2316, 3923, 1934, 7257, 14295, 14296, 5875
3490, 2316, 985, 3922, 3923, 7254, 14298, 14299, 14295
3491, 3923, 3922, 984, 3256, 14299, 14301, 11169, 14302
3492, 1934, 3923, 3256, 1085, 14296, 14302, 11166, 5864
3493, 1066, 3664, 3924, 3069, 13037, 14305, 14306, 10288
3494, 3664, 1147, 2165, 3924, 13034, 6683, 14308, 14305
3495, 3924, 2165, 984, 3922, 14308, 6680, 14301, 14310
3496, 3069, 3924, 3922, 985, 14306, 14310, 14298, 10291
3497, 1136, 2055, 3925, 2402, 6301, 14313, 14314, 7574
3498, 2055, 1046, 1394, 3925, 6298, 4056, 14316, 14313
3499, 3925, 1394, 1142, 3715, 14316, 4053, 13262, 14318
3500, 2402, 3925, 3715, 1236, 14314, 14318, 13257, 7577
3501, 1290, 3926, 3927, 3687, 14321, 14322, 14323, 13143
3502, 3926, 1244, 2130, 3927, 14325, 6553, 14326, 14322
3503, 3927, 2130, 1219, 1627, 14326, 6561, 4807, 14328
3504, 3687, 3927, 1627, 1155, 14323, 14328, 4817, 13137
3505, 1215, 3496, 3929, 2770, 12363, 14331, 14332, 9051
3506, 3496, 1257, 3928, 3929, 12360, 14334, 14335, 14331
3507, 3929, 3928, 1247, 1746, 14335, 14337, 5224, 14338
3508, 2770, 3929, 1746, 1224, 14332, 14338, 5221, 9056
3509, 1192, 3635, 3931, 3848, 12905, 14341, 14342, 13859
3510, 3635, 1242, 3679, 3931, 12913, 13103, 14344, 14341
3511, 3931, 3679, 1273, 3930, 14344, 13100, 14346, 14347
3512, 3848, 3931, 3930, 1243, 14342, 14347, 14349, 13863
3513, 1209, 3165, 3932, 2913, 10747, 14351, 14352, 9613
3514, 3165, 1275, 3870, 3932, 10744, 13979, 14354, 14351
3515, 3932, 3870, 1243, 3930, 14354, 13975, 14349, 14356
3516, 2913, 3932, 3930, 1273, 14352, 14356, 14346, 9617
3517, 1290, 3172, 3933, 3926, 10788, 14359, 14360, 14321
3518, 3172, 1312, 3829, 3933, 10785, 13775, 14362, 14359
3519, 3933, 3829, 1306, 1519, 14362, 13781, 4462, 14364
3520, 3926, 3933, 1519, 1244, 14360, 14364, 4459, 14325
3521, 1247, 3928, 3935, 2830, 14337, 14367, 14368, 9288
3522, 3928, 1257, 3035, 3935, 14334, 10138, 14370, 14367
3523, 3935, 3035, 1287, 3934, 14370, 10147, 14372, 14373
3524, 2830, 3935, 3934, 1311, 14368, 14373, 14375, 9291
3525, 1318, 2473, 3936, 2732, 7847, 14377, 14378, 8894
3526, 2473, 1342, 1992, 3936, 7844, 6067, 14380, 14377
3527, 3936, 1992, 1311, 3934, 14380, 6064, 14375, 14382
3528, 2732, 3936, 3934, 1287, 14378, 14382, 14372, 8897
*MATERIAL, NAME=MAT1
*ELASTIC
72400.0, 0.33
*SHELL SECTION, ELSET=EALL, MATERIAL=MAT1
2.0
*BOUNDARY
*STEP
*STATIC
*CLOAD
*NODE FILE
U, S
*END STEP
